&CONTROL
  calculation='relax',
  prefix='calc',
  pseudo_dir='/storage/coda1/p-amedford6/0/shared/rich_project_chbe-medford/medford-share/data/pseudos_module/espresso/nninc/pbe/van',
  outdir='.',
  tefield=.true.,
  dipfield=.true.,
  tprnfor=.true.,
  disk_io='none',
/
&SYSTEM
  ibrav=0,
  celldm(1)=1.8897261245650618d0,
  nat=55,
  ntyp=5,
  ecutwfc=29.39945797996531d00,
  ecutrho=293.9945797996531d00,
  nbnd=211,
  occupations='smearing',
  smearing='fd',
  degauss=0.007349864494991328d00,
  input_dft='BEEF-vdW',
  edir=3,
  emaxpos=0.9845365713065239d00,
  eopreg=0.025d00,
  eamp=0.0d00,
  nosym=.false.,
  noinv=.false.,
  nosym_evc=.false.,
  no_t_rev=.false.,
/
&ELECTRONS
  diagonalization='david',
  conv_thr=7.349864494991327e-08,
  mixing_beta=0.05d00,
  electron_maxstep=1000,
  startingwfc='atomic',
/
&IONS
  ion_dynamics='ipi',
/
&CELL
  cell_dynamics='ipi',
/
CELL_PARAMETERS alat
    6.579727202290808d0     0.000000000000000d0     0.000000000000000d0
   -0.000775132442404d0     5.961596420607155d0     0.000000000000000d0
    0.000000000000000d0    -0.000000000000000d0    25.155947251439940d0
ATOMIC_SPECIES
Ti1 47.867d00 Ti.UPF
O1 15.999d00 O.UPF
C1 12.011d00 C.UPF
H1 1.008d00 H.UPF
N1 14.007d00 N.UPF
ATOMIC_POSITIONS {crystal}
Ti1      0.000123603383822d0     0.499897385958537d0     0.238512187198856d0
Ti1      0.500142521004230d0     0.250038178055688d0     0.238522014307695d0
O1       0.000095322930372d0     0.000084774873452d0     0.317452257936818d0
O1       0.500112315057126d0     0.000084209992886d0     0.290342007718641d0
O1       0.698270105622955d0     0.250236102495782d0     0.369213011426276d0
O1       0.301995368073695d0     0.249987007385122d0     0.369214717028816d0
Ti1      0.505478132331854d0     0.497484000672035d0     0.363986291261543d0
Ti1      0.006099079839105d0     0.252647813274645d0     0.368531702174717d0
O1       0.498260922914358d0     0.999333609273207d0     0.452007552099548d0
O1       0.999182609878348d0     0.999984325526851d0     0.421829089896274d0
O1       0.194018013351391d0     0.249626623392118d0     0.503130785698746d0
O1       0.801879815939173d0     0.249567646513443d0     0.503233480367099d0
Ti1      0.996222430011498d0     0.499910782481946d0     0.498504993272219d0
Ti1      0.494413246101154d0     0.249214210781861d0     0.497314685847657d0
O1       0.998598718799854d0     0.998970190431289d0     0.584221192054810d0
O1       0.496316423344350d0     0.998836713417334d0     0.556574918478255d0
O1       0.690623549622759d0     0.252370770208821d0     0.643201646478247d0
O1       0.307759643578774d0     0.253043609758619d0     0.643318741666779d0
Ti1      0.500223636735865d0     0.498077419123063d0     0.625449553910335d0
Ti1      0.997611168665256d0     0.222574035743011d0     0.636572837102530d0
O1       0.500093721748991d0     0.000084921243389d0     0.186906639369252d0
O1       0.998244831920402d0     0.999440892552500d0     0.684955142559702d0
O1       0.198268504441574d0     0.250236248865719d0     0.238667392858710d0
O1       0.801993766892314d0     0.249987153755059d0     0.238669098461250d0
Ti1      0.000123603383822d0     0.999897385958537d0     0.238512187198856d0
Ti1      0.500142521004230d0     0.750038178055688d0     0.238522014307695d0
O1       0.000095322930372d0     0.500084774873452d0     0.317452257936818d0
O1       0.500112315057126d0     0.500084209992886d0     0.290342007718641d0
O1       0.698270105622955d0     0.750236102495782d0     0.369213011426276d0
O1       0.301995368073695d0     0.749987007385122d0     0.369214717028816d0
Ti1      0.503795260150181d0     0.997522062016224d0     0.363881728708112d0
Ti1      0.005927357674239d0     0.750783331608463d0     0.368394916408114d0
O1       0.498073958636171d0     0.499164498931793d0     0.451682982111989d0
O1       0.999398408140273d0     0.499884786926739d0     0.422576573441104d0
O1       0.194064453933394d0     0.749353981573385d0     0.503108068248587d0
O1       0.801882096827226d0     0.749436752079186d0     0.503242606845728d0
Ti1      0.995129313353956d0     0.000415024918444d0     0.496463149491658d0
Ti1      0.494290236655093d0     0.748642724619786d0     0.497327691744502d0
O1       0.999230673769932d0     0.500933206727389d0     0.591146487234856d0
O1       0.497728254334920d0     0.499280134626459d0     0.554553142734075d0
O1       0.691195415468919d0     0.746308735931031d0     0.642752138186273d0
O1       0.308571343955156d0     0.743492352588431d0     0.644597747273528d0
Ti1      0.495791758822515d0     0.999000685261746d0     0.627739151766761d0
Ti1      0.992470528615495d0     0.760565363660761d0     0.631552093201596d0
O1       0.500093721748991d0     0.500084921243389d0     0.186906639369252d0
O1       0.198268504441574d0     0.750236248865719d0     0.238667392858710d0
O1       0.801993766892315d0     0.749987153755059d0     0.238669098461250d0
C1       0.906122302671469d0     0.522502323708184d0     0.753080852277043d0
O1       0.020784908391577d0     0.506723638505704d0     0.703911926360885d0
H1       0.751636772902974d0     0.472750339900816d0     0.743730301691390d0
H1       0.163992657295170d0     0.537398275538553d0     0.710559869956617d0
H1       0.970590015728677d0     0.406995396230254d0     0.782166503243796d0
H1       0.910074538246217d0     0.695176455524282d0     0.767234917989313d0
N1       0.375605206735539d0     0.934139817876960d0     0.780496020728591d0
N1       0.429719768433407d0     0.104319907186306d0     0.770341808103042d0
K_POINTS automatic
4 4 1  0 0 0 
