&CONTROL
  calculation='relax',
  prefix='calc',
  pseudo_dir='/storage/coda1/p-amedford6/0/shared/rich_project_chbe-medford/medford-share/data/pseudos_module/espresso/nninc/pbe/van',
  outdir='.',
  tefield=.true.,
  dipfield=.true.,
  tprnfor=.true.,
  disk_io='none',
/
&SYSTEM
  ibrav=0,
  celldm(1)=1.8897261245650618d0,
  nat=55,
  ntyp=5,
  ecutwfc=29.39945797996531d00,
  ecutrho=293.9945797996531d00,
  nbnd=211,
  occupations='smearing',
  smearing='fd',
  degauss=0.007349864494991328d00,
  input_dft='BEEF-vdW',
  edir=3,
  emaxpos=0.9906381013198691d00,
  eopreg=0.025d00,
  eamp=0.0d00,
  nosym=.false.,
  noinv=.false.,
  nosym_evc=.false.,
  no_t_rev=.false.,
/
&ELECTRONS
  diagonalization='david',
  conv_thr=7.349864494991327e-08,
  mixing_beta=0.05d00,
  electron_maxstep=1000,
  startingwfc='atomic',
/
&IONS
  ion_dynamics='ipi',
/
&CELL
  cell_dynamics='ipi',
/
CELL_PARAMETERS alat
    6.579727202290808d0     0.000000000000000d0     0.000000000000000d0
   -0.000775132442404d0     5.961596420607155d0     0.000000000000000d0
    0.000000000000000d0    -0.000000000000000d0    25.155947251439940d0
ATOMIC_SPECIES
Ti1 47.867d00 Ti.UPF
O1 15.999d00 O.UPF
C1 12.011d00 C.UPF
H1 1.008d00 H.UPF
N1 14.007d00 N.UPF
ATOMIC_POSITIONS {crystal}
Ti1      0.000123603383822d0     0.499897385958537d0     0.238512187198856d0
Ti1      0.500142521004230d0     0.250038178055688d0     0.238522014307695d0
O1       0.000095322930372d0     0.000084774873452d0     0.317452257936818d0
O1       0.500112315057126d0     0.000084209992886d0     0.290342007718641d0
O1       0.698270105622955d0     0.250236102495782d0     0.369213011426276d0
O1       0.301995368073695d0     0.249987007385122d0     0.369214717028816d0
Ti1      0.494307234044748d0     0.493427359458024d0     0.363970815500011d0
Ti1      0.995249617274276d0     0.251432675723769d0     0.368157428432653d0
O1       0.500874302660510d0     0.002126755234517d0     0.452336405382791d0
O1       0.000005866866499d0     0.000673478741905d0     0.422061825259663d0
O1       0.196055416386353d0     0.251780785753052d0     0.503790938210223d0
O1       0.804781201939890d0     0.252571571092551d0     0.503812269215122d0
Ti1      0.000337100317843d0     0.500056396748500d0     0.497275718078967d0
Ti1      0.502190686778772d0     0.252698286351665d0     0.497821000852854d0
O1       0.999419635872108d0     0.997269043902442d0     0.585069711992755d0
O1       0.501095375387787d0     0.001687608084139d0     0.556448003473611d0
O1       0.692058251053173d0     0.256429537449421d0     0.643140784155336d0
O1       0.308620153352451d0     0.254513598397292d0     0.642325114033818d0
Ti1      0.497488779364692d0     0.503561025240522d0     0.626575689305841d0
Ti1      0.003315313828473d0     0.221751301794694d0     0.635378202055314d0
O1       0.500093721748991d0     0.000084921243389d0     0.186906639369252d0
O1       0.001582662091877d0     0.009950534005156d0     0.686473235467004d0
O1       0.198268504441574d0     0.250236248865719d0     0.238667392858710d0
O1       0.801993766892314d0     0.249987153755059d0     0.238669098461250d0
Ti1      0.000123603383822d0     0.999897385958537d0     0.238512187198856d0
Ti1      0.500142521004230d0     0.750038178055688d0     0.238522014307695d0
O1       0.000095322930372d0     0.500084774873452d0     0.317452257936818d0
O1       0.500112315057126d0     0.500084209992886d0     0.290342007718641d0
O1       0.698270105622955d0     0.750236102495782d0     0.369213011426276d0
O1       0.301995368073695d0     0.749987007385122d0     0.369214717028816d0
Ti1      0.499002769942206d0     0.993530349138732d0     0.363903314708754d0
Ti1      0.995527208005022d0     0.751116820248833d0     0.368203966150423d0
O1       0.500189600286199d0     0.501683535824306d0     0.452162608514168d0
O1       0.999768485243197d0     0.500349276796885d0     0.422650339962895d0
O1       0.196109659123028d0     0.751496808812513d0     0.503424473281108d0
O1       0.804751431972651d0     0.750870422868808d0     0.503589827896705d0
Ti1      0.002838326775029d0     0.000108620600331d0     0.496474142301900d0
Ti1      0.502104388876937d0     0.752462355560681d0     0.497858602247467d0
O1       0.001063308964781d0     0.504173829110916d0     0.594222515163688d0
O1       0.499695980357447d0     0.503137554271065d0     0.555449007796595d0
O1       0.692128932446767d0     0.751434007219583d0     0.643445872927730d0
O1       0.309668845790817d0     0.752508210571164d0     0.644120225351800d0
Ti1      0.501075252978049d0     0.004421430071322d0     0.627832008690896d0
Ti1      0.994254268628488d0     0.760685311884220d0     0.633829941805226d0
O1       0.500093721748991d0     0.500084921243389d0     0.186906639369252d0
O1       0.198268504441574d0     0.750236248865719d0     0.238667392858710d0
O1       0.801993766892315d0     0.749987153755059d0     0.238669098461250d0
C1       0.852204331540034d0     0.506514860225100d0     0.754085332333207d0
O1       0.014590180918072d0     0.560320486134866d0     0.716953733873938d0
H1       0.820714334803127d0     0.328531560270515d0     0.749331779183302d0
H1       0.072150618741572d0     0.704195120027581d0     0.727774463359170d0
H1       0.905450851141914d0     0.539515166861106d0     0.794369563270486d0
H1       0.717097994617912d0     0.605436748098235d0     0.744976731482138d0
N1       0.342530353425875d0     0.151000731314861d0     0.780363562764952d0
N1       0.453638924539875d0     0.014165298257210d0     0.786202986188121d0
K_POINTS automatic
4 4 1  0 0 0 
