&CONTROL
  calculation='relax',
  prefix='calc',
  pseudo_dir='/storage/coda1/p-amedford6/0/shared/rich_project_chbe-medford/medford-share/data/pseudos_module/espresso/nninc/pbe/van',
  outdir='.',
  tefield=.true.,
  dipfield=.true.,
  tprnfor=.true.,
  disk_io='none',
/
&SYSTEM
  ibrav=0,
  celldm(1)=1.8897261245650618d0,
  nat=53,
  ntyp=5,
  ecutwfc=29.39945797996531d00,
  ecutrho=293.9945797996531d00,
  nbnd=207,
  occupations='smearing',
  smearing='fd',
  degauss=0.007349864494991328d00,
  input_dft='BEEF-vdW',
  edir=3,
  emaxpos=0.9779219710801137d00,
  eopreg=0.025d00,
  eamp=0.0d00,
  nosym=.false.,
  noinv=.false.,
  nosym_evc=.false.,
  no_t_rev=.false.,
/
&ELECTRONS
  diagonalization='david',
  conv_thr=7.349864494991327e-08,
  mixing_beta=0.05d00,
  electron_maxstep=1000,
  startingpot='file',
  startingwfc='atomic',
/
&IONS
  ion_dynamics='ipi',
/
&CELL
  cell_dynamics='ipi',
/
CELL_PARAMETERS alat
    6.579727202290808d0     0.000000000000000d0     0.000000000000000d0
   -0.000775132442404d0     5.961596420607155d0     0.000000000000000d0
    0.000000000000000d0    -0.000000000000000d0    25.155947251439940d0
ATOMIC_SPECIES
Ti1 47.867d00 Ti.UPF
O1 15.999d00 O.UPF
N1 14.007d00 N.UPF
C1 12.011d00 C.UPF
H1 1.008d00 H.UPF
ATOMIC_POSITIONS {crystal}
Ti1      0.000123603383822d0     0.499897385958536d0     0.238512187198856d0
Ti1      0.500142521004230d0     0.250038178055688d0     0.238522014307695d0
O1       0.000095322930372d0     0.000084774873452d0     0.317452257936818d0
O1       0.500112315057126d0     0.000084209992886d0     0.290342007718641d0
O1       0.698270105622955d0     0.250236102495782d0     0.369213011426276d0
O1       0.301995368073695d0     0.249987007385122d0     0.369214717028816d0
Ti1      0.500198167309398d0     0.485761668506182d0     0.364758343030283d0
Ti1      0.000261424674789d0     0.248709163236136d0     0.368424970923767d0
O1       0.498609335718398d0     0.998650638643736d0     0.451347101027561d0
O1       0.001882992193933d0     0.999479849154423d0     0.422099495650131d0
O1       0.197214187736136d0     0.245133950872461d0     0.502889821268035d0
O1       0.805805829492705d0     0.249959508963314d0     0.501075005600394d0
Ti1      0.991311420450663d0     0.506248699920355d0     0.500823781549430d0
Ti1      0.489734457623220d0     0.260536592778423d0     0.498938839189770d0
O1       0.984716093640403d0     0.998395160586286d0     0.582683643744074d0
O1       0.512243518490038d0     0.998197610108930d0     0.553281238236500d0
O1       0.686673183667091d0     0.253345530817968d0     0.642491742404556d0
O1       0.300991450164430d0     0.235637652768002d0     0.632451621675524d0
Ti1      0.496094154359955d0     0.504563379249427d0     0.631413243706867d0
Ti1      0.999566892301090d0     0.247522541444737d0     0.628139257372705d0
O1       0.500093721748991d0     0.000084921243389d0     0.186906639369252d0
O1       0.001119661100318d0     0.997936093699971d0     0.684221522522100d0
O1       0.198268504441574d0     0.250236248865719d0     0.238667392858710d0
O1       0.801993766892314d0     0.249987153755059d0     0.238669098461250d0
Ti1      0.000123603383822d0     0.999897385958536d0     0.238512187198856d0
Ti1      0.500142521004230d0     0.750038178055688d0     0.238522014307695d0
O1       0.000095322930372d0     0.500084774873452d0     0.317452257936818d0
O1       0.500112315057126d0     0.500084209992886d0     0.290342007718641d0
O1       0.698270105622955d0     0.750236102495782d0     0.369213011426276d0
O1       0.301995368073695d0     0.749987007385122d0     0.369214717028816d0
Ti1      0.500001644927041d0     0.985370751416071d0     0.364779031055315d0
Ti1      0.000183276761494d0     0.748948988039575d0     0.368476322807288d0
O1       0.498143364884205d0     0.500337265907508d0     0.450666768927567d0
O1       0.001460782485842d0     0.499964783615161d0     0.422656139091726d0
O1       0.196391384883457d0     0.750115747726120d0     0.503238576963198d0
O1       0.805587204507832d0     0.748382985929809d0     0.501391949679993d0
Ti1      0.993378097423514d0     0.005244978773932d0     0.497397804559228d0
Ti1      0.489123978592628d0     0.752005873888589d0     0.496728601812572d0
O1       0.990494671523929d0     0.493072726650394d0     0.584485029039130d0
O1       0.499627117124175d0     0.495091735307399d0     0.553798157421966d0
O1       0.687118590206940d0     0.743844818890677d0     0.642935270056570d0
O1       0.303633294591454d0     0.760385095217225d0     0.633915909629991d0
Ti1      0.501261531621125d0     0.003060855214996d0     0.623932536429487d0
Ti1      0.000248105322210d0     0.778775516454155d0     0.638262262582669d0
O1       0.500093721748991d0     0.500084921243389d0     0.186906639369252d0
O1       0.198268504441574d0     0.750236248865719d0     0.238667392858710d0
O1       0.801993766892315d0     0.749987153755059d0     0.238669098461250d0
N1       0.198430620305328d0     0.473914818595353d0     0.730587727842565d0
N1       0.032401388081641d0     0.491873798849754d0     0.696436827281056d0
C1       0.387351385993270d0     0.480703285039797d0     0.717125521337520d0
H1       0.483152106275193d0     0.456629280270948d0     0.752495228772205d0
H1       0.156858595097224d0     0.444370836097074d0     0.768937302790975d0
H1       0.906558925086513d0     0.478652681189179d0     0.719704419896824d0
K_POINTS automatic
4 4 1  0 0 0 
