&CONTROL
  calculation='relax',
  prefix='calc',
  pseudo_dir='/storage/coda1/p-amedford6/0/shared/rich_project_chbe-medford/medford-share/data/pseudos_module/espresso/nninc/pbe/van',
  outdir='.',
  tefield=.true.,
  dipfield=.true.,
  tprnfor=.true.,
  disk_io='none',
/
&SYSTEM
  ibrav=0,
  celldm(1)=1.8897261245650618d0,
  nat=54,
  ntyp=5,
  ecutwfc=29.39945797996531d00,
  ecutrho=293.9945797996531d00,
  nbnd=208,
  occupations='smearing',
  smearing='fd',
  degauss=0.007349864494991328d00,
  input_dft='BEEF-vdW',
  edir=3,
  emaxpos=0.991192463623811d00,
  eopreg=0.025d00,
  eamp=0.0d00,
  nosym=.false.,
  noinv=.false.,
  nosym_evc=.false.,
  no_t_rev=.false.,
/
&ELECTRONS
  diagonalization='david',
  conv_thr=7.349864494991327e-08,
  mixing_beta=0.05d00,
  electron_maxstep=1000,
  startingpot='file',
  startingwfc='atomic',
/
&IONS
  ion_dynamics='ipi',
/
&CELL
  cell_dynamics='ipi',
/
CELL_PARAMETERS alat
    6.579727202290808d0     0.000000000000000d0     0.000000000000000d0
   -0.000775132442404d0     5.961596420607155d0     0.000000000000000d0
    0.000000000000000d0    -0.000000000000000d0    25.155947251439940d0
ATOMIC_SPECIES
Ti1 47.867d00 Ti.UPF
O1 15.999d00 O.UPF
N1 14.007d00 N.UPF
C1 12.011d00 C.UPF
H1 1.008d00 H.UPF
ATOMIC_POSITIONS {crystal}
Ti1      0.000123603383822d0     0.499897385958536d0     0.238512187198856d0
Ti1      0.500142521004230d0     0.250038178055688d0     0.238522014307695d0
O1       0.000095322930372d0     0.000084774873452d0     0.317452257936818d0
O1       0.500112315057126d0     0.000084209992886d0     0.290342007718641d0
O1       0.698270105622955d0     0.250236102495782d0     0.369213011426276d0
O1       0.301995368073695d0     0.249987007385122d0     0.369214717028816d0
Ti1      0.500198167309398d0     0.485761668506182d0     0.364758343030283d0
Ti1      0.000261424674789d0     0.248709163236136d0     0.368424970923767d0
O1       0.497734814965116d0     0.995657323467642d0     0.452121843260715d0
O1       0.001882992193933d0     0.999479849154423d0     0.422099495650131d0
O1       0.193953612671329d0     0.249217948893403d0     0.503321541939289d0
O1       0.801958902037611d0     0.249102881084540d0     0.502480031209661d0
Ti1      0.998956558534062d0     0.497292141771473d0     0.497368996624700d0
Ti1      0.499840299182379d0     0.245782676932892d0     0.497672555526086d0
O1       0.994221416006592d0     0.011138350882939d0     0.584300175003519d0
O1       0.499048145781383d0     0.999615464199526d0     0.556400049242422d0
O1       0.686023707053829d0     0.248199625571726d0     0.645171521993862d0
O1       0.304579978820188d0     0.247287237071767d0     0.644472607810756d0
Ti1      0.493698431238701d0     0.493927663020344d0     0.625959901177689d0
Ti1      0.989717315998618d0     0.231502709492055d0     0.640764803229202d0
O1       0.500093721748991d0     0.000084921243389d0     0.186906639369252d0
O1       0.996187197961333d0     0.974724944890235d0     0.684754457416313d0
O1       0.198268504441574d0     0.250236248865719d0     0.238667392858710d0
O1       0.801993766892314d0     0.249987153755059d0     0.238669098461250d0
Ti1      0.000123603383822d0     0.999897385958536d0     0.238512187198856d0
Ti1      0.500142521004230d0     0.750038178055688d0     0.238522014307695d0
O1       0.000095322930372d0     0.500084774873452d0     0.317452257936818d0
O1       0.500112315057126d0     0.500084209992886d0     0.290342007718641d0
O1       0.698270105622955d0     0.750236102495782d0     0.369213011426276d0
O1       0.301995368073695d0     0.749987007385122d0     0.369214717028816d0
Ti1      0.500001644927041d0     0.985370751416071d0     0.364779031055315d0
Ti1      0.000183276761494d0     0.748948988039575d0     0.368476322807288d0
O1       0.497861669426580d0     0.498213254451182d0     0.451891436996999d0
O1       0.001460782485842d0     0.499964783615161d0     0.422656139091726d0
O1       0.193281435401147d0     0.747388258318751d0     0.504976152751849d0
O1       0.802300952019610d0     0.747431635388125d0     0.503984082964846d0
Ti1      0.000162396818510d0     0.999454974224685d0     0.497166659656056d0
Ti1      0.500366026649905d0     0.745566645619658d0     0.498065016474884d0
O1       0.993224890207131d0     0.489407740002393d0     0.595847662452502d0
O1       0.498843385696427d0     0.494283935446050d0     0.554972458006029d0
O1       0.684600946539863d0     0.742265262012084d0     0.643208075620931d0
O1       0.304095187038626d0     0.744375578574593d0     0.640411228660347d0
Ti1      0.495782223281806d0     0.995964465287633d0     0.627840399029113d0
Ti1      0.001578759803004d0     0.773513099000089d0     0.629246541170088d0
O1       0.500093721748991d0     0.500084921243389d0     0.186906639369252d0
O1       0.198268504441574d0     0.750236248865719d0     0.238667392858710d0
O1       0.801993766892315d0     0.749987153755059d0     0.238669098461250d0
N1       0.995946067084410d0     0.445634274550694d0     0.724725807515537d0
C1       0.151273717078074d0     0.424617612942305d0     0.754977722397159d0
H1       0.151527632810927d0     0.488905839321112d0     0.795478287878369d0
H1       0.283069383300810d0     0.338232681913182d0     0.739820883325912d0
N1       0.822205056355154d0     0.541690929398288d0     0.745527136394941d0
H1       0.855991011333607d0     0.649301356547773d0     0.775779899763347d0
H1       0.747339779715887d0     0.625391178467673d0     0.716174840704954d0
K_POINTS automatic
4 4 1  0 0 0 
