&CONTROL
  calculation='relax',
  prefix='calc',
  pseudo_dir='/storage/coda1/p-amedford6/0/shared/rich_project_chbe-medford/medford-share/data/pseudos_module/espresso/nninc/pbe/van',
  outdir='.',
  tefield=.true.,
  dipfield=.true.,
  tprnfor=.true.,
  disk_io='none',
/
&SYSTEM
  ibrav=0,
  celldm(1)=1.8897261245650618d0,
  nat=53,
  ntyp=4,
  ecutwfc=29.39945797996531d00,
  ecutrho=293.9945797996531d00,
  nbnd=206,
  occupations='smearing',
  smearing='fd',
  degauss=0.007349864494991328d00,
  input_dft='BEEF-vdW',
  edir=3,
  emaxpos=0.9866683894397144d00,
  eopreg=0.025d00,
  eamp=0.0d00,
  nosym=.false.,
  noinv=.false.,
  nosym_evc=.false.,
  no_t_rev=.false.,
/
&ELECTRONS
  diagonalization='david',
  conv_thr=7.349864494991327e-08,
  mixing_beta=0.05d00,
  electron_maxstep=1000,
  startingwfc='atomic',
/
&IONS
  ion_dynamics='ipi',
/
&CELL
  cell_dynamics='ipi',
/
CELL_PARAMETERS alat
    6.579727202290808d0     0.000000000000000d0     0.000000000000000d0
   -0.000775132442404d0     5.961596420607155d0     0.000000000000000d0
    0.000000000000000d0    -0.000000000000000d0    25.155947251439940d0
ATOMIC_SPECIES
Ti1 47.867d00 Ti.UPF
O1 15.999d00 O.UPF
C1 12.011d00 C.UPF
H1 1.008d00 H.UPF
ATOMIC_POSITIONS {crystal}
Ti1      0.000123603383822d0     0.499897385958537d0     0.238512187198856d0
Ti1      0.500142521004230d0     0.250038178055688d0     0.238522014307695d0
O1       0.000095322930372d0     0.000084774873452d0     0.317452257936818d0
O1       0.500112315057126d0     0.000084209992886d0     0.290342007718641d0
O1       0.698270105622955d0     0.250236102495782d0     0.369213011426276d0
O1       0.301995368073695d0     0.249987007385122d0     0.369214717028816d0
Ti1      0.504211584116060d0     0.497415241112768d0     0.363920694721564d0
Ti1      0.006675141293387d0     0.250185091792129d0     0.367910073416321d0
O1       0.498200818907401d0     0.003575415860575d0     0.451599685631272d0
O1       0.000808508102410d0     0.001457906594055d0     0.421160388887423d0
O1       0.193557870966720d0     0.256711512589290d0     0.502437887265250d0
O1       0.803418012037264d0     0.256283735795122d0     0.501677428796169d0
Ti1      0.995117555868268d0     0.505296640782317d0     0.496509040408443d0
Ti1      0.497056948764188d0     0.255887982975233d0     0.496897097057947d0
O1       0.993882936478920d0     0.013741407765240d0     0.581775557131560d0
O1       0.498467121552544d0     0.008737667231147d0     0.555508149667478d0
O1       0.686888546244640d0     0.257011150263200d0     0.643307072117341d0
O1       0.301165186498308d0     0.257310547391654d0     0.642438448912280d0
Ti1      0.494944572805686d0     0.505689108563835d0     0.625671289881976d0
Ti1      0.994656357394109d0     0.230436886478105d0     0.634187912951910d0
O1       0.500093721748991d0     0.000084921243389d0     0.186906639369252d0
O1       0.995111612807683d0     0.989290597601666d0     0.682474174755040d0
O1       0.198268504441574d0     0.250236248865719d0     0.238667392858710d0
O1       0.801993766892314d0     0.249987153755059d0     0.238669098461250d0
Ti1      0.000123603383822d0     0.999897385958537d0     0.238512187198856d0
Ti1      0.500142521004230d0     0.750038178055688d0     0.238522014307695d0
O1       0.000095322930372d0     0.500084774873452d0     0.317452257936818d0
O1       0.500112315057126d0     0.500084209992886d0     0.290342007718641d0
O1       0.698270105622955d0     0.750236102495782d0     0.369213011426276d0
O1       0.301995368073695d0     0.749987007385122d0     0.369214717028816d0
Ti1      0.506062637906755d0     0.997500047904340d0     0.363868206897380d0
Ti1      0.006796020643137d0     0.749666010139374d0     0.367635745416334d0
O1       0.498021072176543d0     0.506497985887956d0     0.451293561246904d0
O1       0.999641542075087d0     0.503042584716764d0     0.422107204895670d0
O1       0.193442874444017d0     0.754231745670776d0     0.503900678395625d0
O1       0.803479264973539d0     0.754450480942198d0     0.503102643946041d0
Ti1      0.000316108367809d0     0.006638103345213d0     0.495415153002266d0
Ti1      0.497010808672803d0     0.756021037346538d0     0.497509169776644d0
O1       0.992654460217874d0     0.497542101791448d0     0.593922110766658d0
O1       0.500258829738234d0     0.502813607523470d0     0.554396716998338d0
O1       0.687157319616235d0     0.752400425939231d0     0.640207653547684d0
O1       0.301373922027582d0     0.752397108153784d0     0.638343078981092d0
Ti1      0.495014868676869d0     0.005170554547925d0     0.627260962025120d0
Ti1      0.996285447243864d0     0.777516667820150d0     0.628631033119099d0
O1       0.500093721748991d0     0.500084921243389d0     0.186906639369252d0
O1       0.198268504441574d0     0.750236248865719d0     0.238667392858710d0
O1       0.801993766892315d0     0.749987153755059d0     0.238669098461250d0
C1       0.991784034507394d0     0.468641127482609d0     0.756073983998038d0
O1       0.131706384454346d0     0.644762243667337d0     0.766653998625108d0
H1       0.077099174003804d0     0.312562512567032d0     0.754338906149425d0
H1       0.072134528498524d0     0.785353402668855d0     0.754792565043559d0
H1       0.873511739251962d0     0.452720501062574d0     0.786430139510176d0
H1       0.910432115636365d0     0.492028729981829d0     0.718078392941174d0
K_POINTS automatic
4 4 1  0 0 0 
