&CONTROL
  calculation='relax',
  prefix='calc',
  pseudo_dir='/storage/coda1/p-amedford6/0/shared/rich_project_chbe-medford/medford-share/data/pseudos_module/espresso/nninc/pbe/van',
  outdir='.',
  tefield=.true.,
  dipfield=.true.,
  tprnfor=.true.,
  disk_io='none',
/
&SYSTEM
  ibrav=0,
  celldm(1)=1.8897261245650618d0,
  nat=51,
  ntyp=5,
  ecutwfc=29.39945797996531d00,
  ecutrho=293.9945797996531d00,
  nbnd=204,
  occupations='smearing',
  smearing='fd',
  degauss=0.007349864494991328d00,
  input_dft='BEEF-vdW',
  edir=3,
  emaxpos=0.9762302302867041d00,
  eopreg=0.025d00,
  eamp=0.0d00,
  nosym=.false.,
  noinv=.false.,
  nosym_evc=.false.,
  no_t_rev=.false.,
/
&ELECTRONS
  diagonalization='david',
  conv_thr=7.349864494991327e-08,
  mixing_beta=0.05d00,
  electron_maxstep=1000,
  startingwfc='atomic',
/
&IONS
  ion_dynamics='ipi',
/
&CELL
  cell_dynamics='ipi',
/
CELL_PARAMETERS alat
    6.579727202290808d0     0.000000000000000d0     0.000000000000000d0
   -0.000775132442404d0     5.961596420607155d0     0.000000000000000d0
    0.000000000000000d0    -0.000000000000000d0    25.155947251439940d0
ATOMIC_SPECIES
Ti1 47.867d00 Ti.UPF
O1 15.999d00 O.UPF
N1 14.007d00 N.UPF
C1 12.011d00 C.UPF
H1 1.008d00 H.UPF
ATOMIC_POSITIONS {crystal}
Ti1      0.000123603383822d0     0.499897385958536d0     0.238512187198856d0
Ti1      0.500142521004230d0     0.250038178055688d0     0.238522014307695d0
O1       0.000095322930372d0     0.000084774873452d0     0.317452257936818d0
O1       0.500112315057126d0     0.000084209992886d0     0.290342007718641d0
O1       0.698270105622955d0     0.250236102495782d0     0.369213011426276d0
O1       0.301995368073695d0     0.249987007385122d0     0.369214717028816d0
Ti1      0.500198167309398d0     0.485761668506182d0     0.364758343030283d0
Ti1      0.000261424674789d0     0.248709163236136d0     0.368424970923767d0
O1       0.501448379981486d0     0.994304542653134d0     0.449680062508648d0
O1       0.001882992193933d0     0.999479849154423d0     0.422099495650131d0
O1       0.199094927679694d0     0.244795301023226d0     0.500350237826499d0
O1       0.803161529761968d0     0.246032633213804d0     0.501777665731566d0
Ti1      0.995232375798965d0     0.503296417369424d0     0.506061104939420d0
Ti1      0.495210795638820d0     0.242500942745998d0     0.495233574599362d0
O1       0.008567646001540d0     0.984662442383970d0     0.583814402720990d0
O1       0.505502170123507d0     0.991212278389815d0     0.552751571258328d0
O1       0.700259050928686d0     0.244112824094996d0     0.639172177359911d0
O1       0.322553882624217d0     0.236123171704774d0     0.634231755100212d0
Ti1      0.505669930970045d0     0.490692436805912d0     0.623016482063021d0
Ti1      0.994496792971116d0     0.233894141738457d0     0.630555605539557d0
O1       0.500093721748991d0     0.000084921243389d0     0.186906639369252d0
O1       0.003251414168957d0     0.991254183993634d0     0.685590147190823d0
O1       0.198268504441574d0     0.250236248865719d0     0.238667392858710d0
O1       0.801993766892314d0     0.249987153755059d0     0.238669098461250d0
Ti1      0.000123603383822d0     0.999897385958536d0     0.238512187198856d0
Ti1      0.500142521004230d0     0.750038178055688d0     0.238522014307695d0
O1       0.000095322930372d0     0.500084774873452d0     0.317452257936818d0
O1       0.500112315057126d0     0.500084209992886d0     0.290342007718641d0
O1       0.698270105622955d0     0.750236102495782d0     0.369213011426276d0
O1       0.301995368073695d0     0.749987007385122d0     0.369214717028816d0
Ti1      0.500001644927041d0     0.985370751416071d0     0.364779031055315d0
Ti1      0.000183276761494d0     0.748948988039575d0     0.368476322807288d0
O1       0.500477788554436d0     0.494132913696811d0     0.449564911205534d0
O1       0.001460782485842d0     0.499964783615161d0     0.422656139091726d0
O1       0.198656308710336d0     0.747535464009942d0     0.501645376008744d0
O1       0.802939212301709d0     0.746794555447933d0     0.502629765157025d0
Ti1      0.999252351935396d0     0.001532985417711d0     0.496855063851270d0
Ti1      0.495278311719272d0     0.743612111144069d0     0.495354256845164d0
O1       0.003221135192147d0     0.484165183195508d0     0.583277830331687d0
O1       0.502070647529477d0     0.494313264807041d0     0.551752790818871d0
O1       0.700769849467325d0     0.731087892565473d0     0.639230982131675d0
O1       0.322622629305757d0     0.738722203755778d0     0.637555019265441d0
Ti1      0.504206743984971d0     0.988702225477677d0     0.623267516256784d0
Ti1      0.003920978067142d0     0.764547775074270d0     0.640391739431842d0
O1       0.500093721748991d0     0.500084921243389d0     0.186906639369252d0
O1       0.198268504441574d0     0.750236248865719d0     0.238667392858710d0
O1       0.801993766892315d0     0.749987153755059d0     0.238669098461250d0
N1       0.043881368677823d0     0.479043083056097d0     0.690181602009144d0
C1       0.107722482026968d0     0.464189897067780d0     0.737018178215031d0
H1       0.108748521036819d0     0.604286531504340d0     0.765553821204156d0
H1       0.169268718981231d0     0.299614075499285d0     0.751890139513511d0
K_POINTS automatic
4 4 1  0 0 0 
