&CONTROL
  calculation='relax',
  prefix='calc',
  pseudo_dir='/storage/coda1/p-amedford6/0/shared/rich_project_chbe-medford/medford-share/data/pseudos_module/espresso/nninc/pbe/van',
  outdir='.',
  tefield=.true.,
  dipfield=.true.,
  tprnfor=.true.,
  disk_io='none',
/
&SYSTEM
  ibrav=0,
  celldm(1)=1.8897261245650618d0,
  nat=53,
  ntyp=5,
  ecutwfc=29.39945797996531d00,
  ecutrho=293.9945797996531d00,
  nbnd=205,
  occupations='smearing',
  smearing='fd',
  degauss=0.007349864494991328d00,
  input_dft='BEEF-vdW',
  edir=3,
  emaxpos=0.9673865499422976d00,
  eopreg=0.025d00,
  eamp=0.0d00,
  nosym=.false.,
  noinv=.false.,
  nosym_evc=.false.,
  no_t_rev=.false.,
/
&ELECTRONS
  diagonalization='david',
  conv_thr=7.349864494991327e-08,
  mixing_beta=0.05d00,
  electron_maxstep=1000,
  startingwfc='atomic',
/
&IONS
  ion_dynamics='ipi',
/
&CELL
  cell_dynamics='ipi',
/
CELL_PARAMETERS alat
    6.579727202290808d0     0.000000000000000d0     0.000000000000000d0
   -0.000775132442404d0     5.961596420607155d0     0.000000000000000d0
    0.000000000000000d0    -0.000000000000000d0    25.155947251439940d0
ATOMIC_SPECIES
Ti1 47.867d00 Ti.UPF
O1 15.999d00 O.UPF
H1 1.008d00 H.UPF
N1 14.007d00 N.UPF
C1 12.011d00 C.UPF
ATOMIC_POSITIONS {crystal}
Ti1      0.000123603383822d0     0.499897385958536d0     0.238512187198856d0
Ti1      0.500142521004230d0     0.250038178055688d0     0.238522014307695d0
O1       0.000095322930372d0     0.000084774873452d0     0.317452257936818d0
O1       0.500112315057126d0     0.000084209992886d0     0.290342007718641d0
O1       0.698270105622955d0     0.250236102495782d0     0.369213011426276d0
O1       0.301995368073695d0     0.249987007385122d0     0.369214717028816d0
Ti1      0.500198167309398d0     0.485761668506182d0     0.364758343030283d0
Ti1      0.000261424674789d0     0.248709163236136d0     0.368424970923767d0
O1       0.512452703477864d0     0.000226231127554d0     0.450565523045302d0
O1       0.001882992193933d0     0.999479849154423d0     0.422099495650131d0
O1       0.212038534253076d0     0.247796135272826d0     0.502584936029689d0
O1       0.823233278697157d0     0.250111971414442d0     0.503560691579449d0
Ti1      0.011916933818551d0     0.496270628155948d0     0.499144670529387d0
Ti1      0.512344303995026d0     0.236408379879255d0     0.495374194100669d0
O1       0.022367394131836d0     0.001617592406280d0     0.582882200361636d0
O1       0.533954013871191d0     0.999994238174724d0     0.553353461223170d0
O1       0.728893843075289d0     0.257108336478876d0     0.643644939704263d0
O1       0.343205091757799d0     0.235738021524993d0     0.633801735953605d0
Ti1      0.541562767936584d0     0.502124161243402d0     0.638575052110139d0
Ti1      0.043814753253816d0     0.239213184042141d0     0.631008518507708d0
O1       0.500093721748991d0     0.000084921243389d0     0.186906639369252d0
O1       0.040584163572285d0     0.000804490573004d0     0.683159443111001d0
O1       0.198268504441574d0     0.250236248865719d0     0.238667392858710d0
O1       0.801993766892314d0     0.249987153755059d0     0.238669098461250d0
Ti1      0.000123603383822d0     0.999897385958536d0     0.238512187198856d0
Ti1      0.500142521004230d0     0.750038178055688d0     0.238522014307695d0
O1       0.000095322930372d0     0.500084774873452d0     0.317452257936818d0
O1       0.500112315057126d0     0.500084209992886d0     0.290342007718641d0
O1       0.698270105622955d0     0.750236102495782d0     0.369213011426276d0
O1       0.301995368073695d0     0.749987007385122d0     0.369214717028816d0
Ti1      0.500001644927041d0     0.985370751416071d0     0.364779031055315d0
Ti1      0.000183276761494d0     0.748948988039575d0     0.368476322807288d0
O1       0.513759673182409d0     0.496370041460906d0     0.451066456676773d0
O1       0.001460782485842d0     0.499964783615161d0     0.422656139091726d0
O1       0.211726602068273d0     0.749873864354424d0     0.502552788959689d0
O1       0.823580454501219d0     0.747248925312846d0     0.503629793208645d0
Ti1      0.013802433072743d0     0.995963929463530d0     0.496718135277564d0
Ti1      0.512790758865925d0     0.722723631703271d0     0.503223493019774d0
O1       0.026612350578772d0     0.500081810023460d0     0.589825045740880d0
O1       0.518766822620312d0     0.507323882732866d0     0.555191295653848d0
O1       0.729000713737271d0     0.746021054043860d0     0.643990357941967d0
O1       0.343211458324852d0     0.768519172280761d0     0.634493905533787d0
Ti1      0.538261116990846d0     0.002375181029438d0     0.624259208953834d0
Ti1      0.043728251938274d0     0.774465716418446d0     0.633837153254843d0
O1       0.500093721748991d0     0.500084921243389d0     0.186906639369252d0
O1       0.198268504441574d0     0.750236248865719d0     0.238667392858710d0
O1       0.801993766892315d0     0.749987153755059d0     0.238669098461250d0
H1       0.102361269531160d0     0.624424155608634d0     0.729888238092869d0
H1       0.111338943644756d0     0.354945601622598d0     0.727375529470742d0
N1       0.165976476716700d0     0.495438994315391d0     0.708801796969069d0
C1       0.404488880650503d0     0.502402004391803d0     0.718872537669639d0
H1       0.408840942437202d0     0.641179915026254d0     0.745643200582924d0
H1       0.414890498381872d0     0.371419962931453d0     0.747866460515343d0
K_POINTS automatic
4 4 1  0 0 0 
