&CONTROL
  calculation='relax',
  prefix='calc',
  pseudo_dir='/storage/coda1/p-amedford6/0/shared/rich_project_chbe-medford/medford-share/data/pseudos_module/espresso/nninc/pbe/van',
  outdir='.',
  tefield=.true.,
  dipfield=.true.,
  tprnfor=.true.,
  disk_io='none',
/
&SYSTEM
  ibrav=0,
  celldm(1)=1.8897261245650618d0,
  nat=56,
  ntyp=5,
  ecutwfc=29.39945797996531d00,
  ecutrho=293.9945797996531d00,
  nbnd=211,
  occupations='smearing',
  smearing='fd',
  degauss=0.007349864494991328d00,
  input_dft='BEEF-vdW',
  edir=3,
  emaxpos=0.0003458119050938624d00,
  eopreg=0.025d00,
  eamp=0.0d00,
  nosym=.false.,
  noinv=.false.,
  nosym_evc=.false.,
  no_t_rev=.false.,
/
&ELECTRONS
  diagonalization='david',
  conv_thr=7.349864494991327e-08,
  mixing_beta=0.05d00,
  electron_maxstep=1000,
  startingpot='file',
  startingwfc='atomic',
/
&IONS
  ion_dynamics='ipi',
/
&CELL
  cell_dynamics='ipi',
/
CELL_PARAMETERS alat
    6.579727202290808d0     0.000000000000000d0     0.000000000000000d0
   -0.000775132442404d0     5.961596420607155d0     0.000000000000000d0
    0.000000000000000d0    -0.000000000000000d0    25.155947251439940d0
ATOMIC_SPECIES
Ti1 47.867d00 Ti.UPF
O1 15.999d00 O.UPF
N1 14.007d00 N.UPF
C1 12.011d00 C.UPF
H1 1.008d00 H.UPF
ATOMIC_POSITIONS {crystal}
Ti1      0.000123603383822d0     0.499897385958536d0     0.238512187198856d0
Ti1      0.500142521004230d0     0.250038178055688d0     0.238522014307695d0
O1       0.000095322930372d0     0.000084774873452d0     0.317452257936818d0
O1       0.500112315057126d0     0.000084209992886d0     0.290342007718641d0
O1       0.698270105622955d0     0.250236102495782d0     0.369213011426276d0
O1       0.301995368073695d0     0.249987007385122d0     0.369214717028816d0
Ti1      0.500198167309398d0     0.485761668506182d0     0.364758343030283d0
Ti1      0.000261424674789d0     0.248709163236136d0     0.368424970923767d0
O1       0.498865062138361d0     0.002359843547757d0     0.450901049277150d0
O1       0.001882992193933d0     0.999479849154423d0     0.422099495650131d0
O1       0.193685246473454d0     0.251258027252480d0     0.502160204501962d0
O1       0.799681516634207d0     0.253004031806296d0     0.501391937394412d0
Ti1      0.008419738751400d0     0.496436214908785d0     0.501512503177534d0
Ti1      0.512496280614504d0     0.253036194916001d0     0.496679749447711d0
O1       0.993673379562469d0     0.004677063752520d0     0.581393474374007d0
O1       0.497872322326266d0     0.003180121044535d0     0.553035451080488d0
O1       0.683597773059033d0     0.257207412334897d0     0.637755510089713d0
O1       0.302821871397984d0     0.256165144759950d0     0.637191560122316d0
Ti1      0.484254290831438d0     0.507265312540563d0     0.627019991074177d0
Ti1      0.985518164647656d0     0.260045685352657d0     0.628128643595772d0
O1       0.500093721748991d0     0.000084921243389d0     0.186906639369252d0
O1       0.990874177554790d0     0.011169403058299d0     0.683302171760479d0
O1       0.198268504441574d0     0.250236248865719d0     0.238667392858710d0
O1       0.801993766892314d0     0.249987153755059d0     0.238669098461250d0
Ti1      0.000123603383822d0     0.999897385958536d0     0.238512187198856d0
Ti1      0.500142521004230d0     0.750038178055688d0     0.238522014307695d0
O1       0.000095322930372d0     0.500084774873452d0     0.317452257936818d0
O1       0.500112315057126d0     0.500084209992886d0     0.290342007718641d0
O1       0.698270105622955d0     0.750236102495782d0     0.369213011426276d0
O1       0.301995368073695d0     0.749987007385122d0     0.369214717028816d0
Ti1      0.500001644927041d0     0.985370751416071d0     0.364779031055315d0
Ti1      0.000183276761494d0     0.748948988039575d0     0.368476322807288d0
O1       0.498666633062205d0     0.502176068181091d0     0.450709431612265d0
O1       0.001460782485842d0     0.499964783615161d0     0.422656139091726d0
O1       0.193631524634438d0     0.751918382308466d0     0.502139893370886d0
O1       0.800511377750466d0     0.753328228972885d0     0.501247846393192d0
Ti1      0.008479007893678d0     0.995201351013482d0     0.498705115213701d0
Ti1      0.512893122137400d0     0.750433053919892d0     0.496810392238793d0
O1       0.993618215920288d0     0.502318801446795d0     0.582464562816971d0
O1       0.496693782015866d0     0.506048485390321d0     0.554140193324504d0
O1       0.682255162593658d0     0.760145036489068d0     0.640324039118860d0
O1       0.301482996145582d0     0.760412735329652d0     0.638145314547155d0
Ti1      0.493484978249574d0     0.006940964794146d0     0.624107888008174d0
Ti1      0.990991394003831d0     0.789464832913518d0     0.638825839484782d0
O1       0.500093721748991d0     0.500084921243389d0     0.186906639369252d0
O1       0.198268504441574d0     0.750236248865719d0     0.238667392858710d0
O1       0.801993766892315d0     0.749987153755059d0     0.238669098461250d0
N1       0.014390870779325d0     0.452696168520068d0     0.740643842593010d0
N1       0.998863503337658d0     0.492234906680433d0     0.693033424067400d0
C1       0.027120424713449d0     0.644240234540673d0     0.778320291860106d0
H1       0.975040705910493d0     0.802787729471557d0     0.761480239015354d0
H1       0.941924575428627d0     0.597210109921525d0     0.813784984440935d0
H1       0.187119606412777d0     0.658925816640402d0     0.789303633603468d0
O1       0.503060816036944d0     0.515478381520379d0     0.724637417166268d0
H1       0.623025368668010d0     0.607172573563519d0     0.728227984906878d0
H1       0.543974953295995d0     0.368648138844539d0     0.737408094857151d0
K_POINTS automatic
4 4 1  0 0 0 
