&CONTROL
  calculation='relax',
  prefix='calc',
  pseudo_dir='/storage/coda1/p-amedford6/0/shared/rich_project_chbe-medford/medford-share/data/pseudos_module/espresso/nninc/pbe/van',
  outdir='.',
  tefield=.true.,
  dipfield=.true.,
  tprnfor=.true.,
  disk_io='none',
/
&SYSTEM
  ibrav=0,
  celldm(1)=1.8897261245650618d0,
  nat=53,
  ntyp=5,
  ecutwfc=29.39945797996531d00,
  ecutrho=293.9945797996531d00,
  nbnd=207,
  occupations='smearing',
  smearing='fd',
  degauss=0.007349864494991328d00,
  input_dft='BEEF-vdW',
  edir=3,
  emaxpos=0.045631110861803936d00,
  eopreg=0.025d00,
  eamp=0.0d00,
  nosym=.false.,
  noinv=.false.,
  nosym_evc=.false.,
  no_t_rev=.false.,
/
&ELECTRONS
  diagonalization='david',
  conv_thr=7.349864494991327e-08,
  mixing_beta=0.05d00,
  electron_maxstep=1000,
  startingpot='file',
  startingwfc='atomic',
/
&IONS
  ion_dynamics='ipi',
/
&CELL
  cell_dynamics='ipi',
/
CELL_PARAMETERS alat
    6.579727202290808d0     0.000000000000000d0     0.000000000000000d0
   -0.000775132442404d0     5.961596420607155d0     0.000000000000000d0
    0.000000000000000d0    -0.000000000000000d0    25.155947251439940d0
ATOMIC_SPECIES
Ti1 47.867d00 Ti.UPF
O1 15.999d00 O.UPF
N1 14.007d00 N.UPF
C1 12.011d00 C.UPF
H1 1.008d00 H.UPF
ATOMIC_POSITIONS {crystal}
Ti1      0.000123603383822d0     0.499897385958536d0     0.238512187198856d0
Ti1      0.500142521004230d0     0.250038178055688d0     0.238522014307695d0
O1       0.000095322930372d0     0.000084774873452d0     0.317452257936818d0
O1       0.500112315057126d0     0.000084209992886d0     0.290342007718641d0
O1       0.698270105622955d0     0.250236102495782d0     0.369213011426276d0
O1       0.301995368073695d0     0.249987007385122d0     0.369214717028816d0
Ti1      0.500198167309398d0     0.485761668506182d0     0.364758343030283d0
Ti1      0.000261424674789d0     0.248709163236136d0     0.368424970923767d0
O1       0.500684597650203d0     0.998124103195103d0     0.450516675698565d0
O1       0.001882992193933d0     0.999479849154423d0     0.422099495650131d0
O1       0.199730494442847d0     0.249949709602048d0     0.501761716508526d0
O1       0.805399490459776d0     0.249402762441705d0     0.501815378948187d0
Ti1      0.991859920547779d0     0.497208726757800d0     0.502869332736847d0
Ti1      0.487706991710193d0     0.247722926229111d0     0.496156121243205d0
O1       0.001057068059216d0     0.002603676993130d0     0.580434229136664d0
O1       0.501502354068399d0     0.997168528153246d0     0.553422629794577d0
O1       0.690018223606165d0     0.246310392067980d0     0.638056046708372d0
O1       0.312109782229472d0     0.248019543502247d0     0.637969917856153d0
Ti1      0.502686297360007d0     0.496522993606465d0     0.624234070410019d0
Ti1      0.002749028398384d0     0.229461539390947d0     0.628197988942196d0
O1       0.500093721748991d0     0.000084921243389d0     0.186906639369252d0
O1       0.004525221391324d0     0.001280319666552d0     0.681061390952937d0
O1       0.198268504441574d0     0.250236248865719d0     0.238667392858710d0
O1       0.801993766892314d0     0.249987153755059d0     0.238669098461250d0
Ti1      0.000123603383822d0     0.999897385958536d0     0.238512187198856d0
Ti1      0.500142521004230d0     0.750038178055688d0     0.238522014307695d0
O1       0.000095322930372d0     0.500084774873452d0     0.317452257936818d0
O1       0.500112315057126d0     0.500084209992886d0     0.290342007718641d0
O1       0.698270105622955d0     0.750236102495782d0     0.369213011426276d0
O1       0.301995368073695d0     0.749987007385122d0     0.369214717028816d0
Ti1      0.500001644927041d0     0.985370751416071d0     0.364779031055315d0
Ti1      0.000183276761494d0     0.748948988039575d0     0.368476322807288d0
O1       0.500469559991903d0     0.498724181268990d0     0.450492080076660d0
O1       0.001460782485842d0     0.499964783615161d0     0.422656139091726d0
O1       0.198834693902794d0     0.749678128802869d0     0.501894665145305d0
O1       0.805477093660639d0     0.749010622192227d0     0.501960907638787d0
Ti1      0.991263027284194d0     0.995744755129573d0     0.498432499814150d0
Ti1      0.487258995059570d0     0.747458038910564d0     0.496274941886368d0
O1       0.000404510240128d0     0.498412754465105d0     0.584724547620047d0
O1       0.501708503555392d0     0.499266286838449d0     0.552884833971810d0
O1       0.691387616351798d0     0.744957878834070d0     0.639678234479485d0
O1       0.312228155347441d0     0.744281003226869d0     0.639426890747689d0
Ti1      0.501299491059895d0     0.996582362443070d0     0.624888259566384d0
Ti1      0.001966653532210d0     0.749025067993762d0     0.642517475922597d0
O1       0.500093721748991d0     0.500084921243389d0     0.186906639369252d0
O1       0.198268504441574d0     0.750236248865719d0     0.238667392858710d0
O1       0.801993766892315d0     0.749987153755059d0     0.238669098461250d0
N1       0.100238482400019d0     0.501390937381304d0     0.889578673879480d0
C1       0.997802206015321d0     0.509353788877849d0     0.708966431982263d0
H1       0.915299299756171d0     0.636780725315202d0     0.731764259021147d0
H1       0.915093716035288d0     0.354598602517219d0     0.716817456829292d0
H1       0.147712382609492d0     0.493693644916227d0     0.726267535829088d0
N1       0.942279592469953d0     0.505840713663667d0     0.904355582354356d0
K_POINTS automatic
4 4 1  0 0 0 
