&CONTROL
  calculation='relax',
  prefix='calc',
  pseudo_dir='/storage/coda1/p-amedford6/0/shared/rich_project_chbe-medford/medford-share/data/pseudos_module/espresso/nninc/pbe/van',
  outdir='.',
  tefield=.true.,
  dipfield=.true.,
  tprnfor=.true.,
  disk_io='none',
/
&SYSTEM
  ibrav=0,
  celldm(1)=1.8897261245650618d0,
  nat=51,
  ntyp=4,
  ecutwfc=29.39945797996531d00,
  ecutrho=293.9945797996531d00,
  nbnd=202,
  occupations='smearing',
  smearing='fd',
  degauss=0.007349864494991328d00,
  nspin=2,
  starting_magnetization(1)=0.0d00,
  starting_magnetization(2)=0.0d00,
  starting_magnetization(3)=0.025d00,
  starting_magnetization(4)=0.0d00,
  input_dft='BEEF-vdW',
  edir=3,
  emaxpos=0.9545497769758662d00,
  eopreg=0.025d00,
  eamp=0.0d00,
  nosym=.false.,
  noinv=.false.,
  nosym_evc=.false.,
  no_t_rev=.false.,
/
&ELECTRONS
  diagonalization='david',
  conv_thr=7.349864494991327e-08,
  mixing_beta=0.05d00,
  electron_maxstep=1000,
  startingwfc='atomic',
/
&IONS
  ion_dynamics='ipi',
/
&CELL
  cell_dynamics='ipi',
/
CELL_PARAMETERS alat
    6.579727202290808d0     0.000000000000000d0     0.000000000000000d0
   -0.000775132442404d0     5.961596420607155d0     0.000000000000000d0
    0.000000000000000d0    -0.000000000000000d0    25.155947251439940d0
ATOMIC_SPECIES
Ti1 47.867d00 Ti.UPF
O1 15.999d00 O.UPF
C1 12.011d00 C.UPF
H1 1.008d00 H.UPF
ATOMIC_POSITIONS {crystal}
Ti1      0.000123603383822d0     0.499897385958537d0     0.238512187198856d0
Ti1      0.500142521004230d0     0.250038178055688d0     0.238522014307695d0
O1       0.000095322930372d0     0.000084774873452d0     0.317452257936818d0
O1       0.500112315057126d0     0.000084209992886d0     0.290342007718641d0
O1       0.698270105622955d0     0.250236102495782d0     0.369213011426276d0
O1       0.301995368073695d0     0.249987007385122d0     0.369214717028816d0
Ti1      0.501035810960934d0     0.494356256810992d0     0.363936163153033d0
Ti1      0.001283118238081d0     0.254013263687454d0     0.370619526174420d0
O1       0.499977738800187d0     0.000026896586879d0     0.450095651778984d0
O1       0.000187516569852d0     0.000328011346588d0     0.420903951977747d0
O1       0.196820791502362d0     0.250085500972786d0     0.501678734406700d0
O1       0.802652095850961d0     0.250312526101896d0     0.501631482319355d0
Ti1      0.000763144953509d0     0.493679425623971d0     0.506474576211775d0
Ti1      0.501589603452384d0     0.249717126419485d0     0.495533776022925d0
O1       0.999962695679795d0     0.998544656281585d0     0.581491885414189d0
O1       0.499889026307784d0     0.997243845032268d0     0.552979967206552d0
O1       0.689970886455252d0     0.250223358875962d0     0.637123841253401d0
O1       0.309857596853619d0     0.250183467969108d0     0.637137026589875d0
Ti1      0.499964687433259d0     0.498637671020731d0     0.623656862223473d0
Ti1      0.999905870904326d0     0.238092400191419d0     0.635858103610666d0
O1       0.500093721748991d0     0.000084921243389d0     0.186906639369252d0
O1       0.999891019890464d0     0.004685059920637d0     0.681433204905846d0
O1       0.198268504441574d0     0.250236248865719d0     0.238667392858710d0
O1       0.801993766892314d0     0.249987153755059d0     0.238669098461250d0
Ti1      0.000123603383822d0     0.999897385958537d0     0.238512187198856d0
Ti1      0.500142521004230d0     0.750038178055688d0     0.238522014307695d0
O1       0.000095322930372d0     0.500084774873452d0     0.317452257936818d0
O1       0.500112315057126d0     0.500084209992886d0     0.290342007718641d0
O1       0.698270105622955d0     0.750236102495782d0     0.369213011426276d0
O1       0.301995368073695d0     0.749987007385122d0     0.369214717028816d0
Ti1      0.500944301091374d0     0.994608195169461d0     0.363768499219481d0
Ti1      0.001286139053493d0     0.747602743838153d0     0.369914840061809d0
O1       0.499959685068785d0     0.498680423385818d0     0.450076323081339d0
O1       0.000197372149779d0     0.499623109668227d0     0.419790946258646d0
O1       0.197017753717284d0     0.749512651724864d0     0.500903791660073d0
O1       0.802498978657247d0     0.749585800367147d0     0.500862526582456d0
Ti1      0.001511047866794d0     0.993254518661964d0     0.498325086429777d0
Ti1      0.501744737562442d0     0.748789288460212d0     0.495189659262382d0
O1       0.999991517856190d0     0.504191371495237d0     0.582891403435535d0
O1       0.499852725813839d0     0.500912498377643d0     0.552258500545051d0
O1       0.690686319445419d0     0.747370190167819d0     0.638765193131233d0
O1       0.309122906036685d0     0.747388609275427d0     0.638768603873089d0
Ti1      0.499885297776534d0     0.998757763218230d0     0.624078147837818d0
Ti1      0.999950803426684d0     0.762249088579640d0     0.634012259118421d0
O1       0.500093721748991d0     0.500084921243389d0     0.186906639369252d0
O1       0.198268504441574d0     0.750236248865719d0     0.238667392858710d0
O1       0.801993766892315d0     0.749987153755059d0     0.238669098461250d0
C1       0.000153422180751d0     0.497582242397196d0     0.705116045297867d0
H1       0.999636604080260d0     0.666122063729868d0     0.722192914582480d0
H1       0.135060783990071d0     0.417625684829211d0     0.721833805877584d0
H1       0.864718729141140d0     0.416851472149416d0     0.721812098109184d0
K_POINTS automatic
4 4 1  0 0 0 
