&CONTROL
  calculation='relax',
  prefix='calc',
  pseudo_dir='/storage/coda1/p-amedford6/0/shared/rich_project_chbe-medford/medford-share/data/pseudos_module/espresso/nninc/pbe/van',
  outdir='.',
  tefield=.true.,
  dipfield=.true.,
  tprnfor=.true.,
  disk_io='none',
/
&SYSTEM
  ibrav=0,
  celldm(1)=1.8897261245650618d0,
  nat=53,
  ntyp=5,
  ecutwfc=29.39945797996531d00,
  ecutrho=293.9945797996531d00,
  nbnd=208,
  occupations='smearing',
  smearing='fd',
  degauss=0.007349864494991328d00,
  input_dft='BEEF-vdW',
  edir=3,
  emaxpos=0.9839859654534671d00,
  eopreg=0.025d00,
  eamp=0.0d00,
  nosym=.false.,
  noinv=.false.,
  nosym_evc=.false.,
  no_t_rev=.false.,
/
&ELECTRONS
  diagonalization='david',
  conv_thr=7.349864494991327e-08,
  mixing_beta=0.05d00,
  electron_maxstep=1000,
  startingpot='file',
  startingwfc='atomic',
/
&IONS
  ion_dynamics='ipi',
/
&CELL
  cell_dynamics='ipi',
/
CELL_PARAMETERS alat
    6.579727202290808d0     0.000000000000000d0     0.000000000000000d0
   -0.000775132442404d0     5.961596420607155d0     0.000000000000000d0
    0.000000000000000d0    -0.000000000000000d0    25.155947251439940d0
ATOMIC_SPECIES
Ti1 47.867d00 Ti.UPF
O1 15.999d00 O.UPF
N1 14.007d00 N.UPF
C1 12.011d00 C.UPF
H1 1.008d00 H.UPF
ATOMIC_POSITIONS {crystal}
Ti1      0.000123603383822d0     0.499897385958536d0     0.238512187198856d0
Ti1      0.500142521004230d0     0.250038178055688d0     0.238522014307695d0
O1       0.000095322930372d0     0.000084774873452d0     0.317452257936818d0
O1       0.500112315057126d0     0.000084209992886d0     0.290342007718641d0
O1       0.698270105622955d0     0.250236102495782d0     0.369213011426276d0
O1       0.301995368073695d0     0.249987007385122d0     0.369214717028816d0
Ti1      0.500198167309398d0     0.485761668506182d0     0.364758343030283d0
Ti1      0.000261424674789d0     0.248709163236136d0     0.368424970923767d0
O1       0.501561052805073d0     0.003749943051640d0     0.452179974765829d0
O1       0.001882992193933d0     0.999479849154423d0     0.422099495650131d0
O1       0.197375239051098d0     0.252789607251237d0     0.504146812969670d0
O1       0.806340521573176d0     0.252719775253301d0     0.503985051272148d0
Ti1      0.003714884325693d0     0.502023390673253d0     0.497841193560949d0
Ti1      0.504697683982359d0     0.254350156909635d0     0.498063589555135d0
O1       0.001882568045782d0     0.992532177278401d0     0.583377828812849d0
O1       0.502792308881641d0     0.999771353792624d0     0.557020658843485d0
O1       0.695039986491206d0     0.258799660461338d0     0.640134635335235d0
O1       0.309427203688173d0     0.259258798923781d0     0.639848512671395d0
Ti1      0.502187104375319d0     0.506236065031611d0     0.625602332538596d0
Ti1      0.002805478425259d0     0.228788824117120d0     0.629087571632148d0
O1       0.500093721748991d0     0.000084921243389d0     0.186906639369252d0
O1       0.003558545452721d0     0.019267102586569d0     0.684773026778248d0
O1       0.198268504441574d0     0.250236248865719d0     0.238667392858710d0
O1       0.801993766892314d0     0.249987153755059d0     0.238669098461250d0
Ti1      0.000123603383822d0     0.999897385958536d0     0.238512187198856d0
Ti1      0.500142521004230d0     0.750038178055688d0     0.238522014307695d0
O1       0.000095322930372d0     0.500084774873452d0     0.317452257936818d0
O1       0.500112315057126d0     0.500084209992886d0     0.290342007718641d0
O1       0.698270105622955d0     0.750236102495782d0     0.369213011426276d0
O1       0.301995368073695d0     0.749987007385122d0     0.369214717028816d0
Ti1      0.500001644927041d0     0.985370751416071d0     0.364779031055315d0
Ti1      0.000183276761494d0     0.748948988039575d0     0.368476322807288d0
O1       0.501723643640734d0     0.501874558542571d0     0.452033322120365d0
O1       0.001460782485842d0     0.499964783615161d0     0.422656139091726d0
O1       0.197778137486296d0     0.751407832126234d0     0.502897359455166d0
O1       0.806090103645255d0     0.751612624052668d0     0.502762983986562d0
Ti1      0.003919214896673d0     0.000367780689542d0     0.496903673051470d0
Ti1      0.504780167437578d0     0.755351928468860d0     0.498269935424033d0
O1       0.001394351225485d0     0.508624778917156d0     0.593313257447209d0
O1       0.502641578237607d0     0.505819854066341d0     0.554539063213156d0
O1       0.693642279712748d0     0.749795067531850d0     0.644459814357003d0
O1       0.309806707162953d0     0.749051319539561d0     0.643836156170117d0
Ti1      0.503388868346297d0     0.009079772046130d0     0.629486789483388d0
Ti1      0.002569414014188d0     0.769393888974976d0     0.637975130552623d0
O1       0.500093721748991d0     0.500084921243389d0     0.186906639369252d0
O1       0.198268504441574d0     0.750236248865719d0     0.238667392858710d0
O1       0.801993766892315d0     0.749987153755059d0     0.238669098461250d0
N1       0.001009700943585d0     0.543109029698472d0     0.714089012119842d0
C1       0.997014764129219d0     0.420748626598111d0     0.749556024699705d0
H1       0.994547213138756d0     0.301807906388611d0     0.781065291537682d0
O1       0.493759437589188d0     0.998578867864624d0     0.731461284892915d0
H1       0.604919832605038d0     0.891251867934208d0     0.731025864621502d0
H1       0.370040260537707d0     0.909775604777305d0     0.729103842568297d0
K_POINTS automatic
4 4 1  0 0 0 
