&CONTROL
  calculation='relax',
  prefix='calc',
  pseudo_dir='/storage/coda1/p-amedford6/0/shared/rich_project_chbe-medford/medford-share/data/pseudos_module/espresso/nninc/pbe/van',
  outdir='.',
  tefield=.true.,
  dipfield=.true.,
  tprnfor=.true.,
  disk_io='none',
/
&SYSTEM
  ibrav=0,
  celldm(1)=1.8897261245650618d0,
  nat=51,
  ntyp=4,
  ecutwfc=29.39945797996531d00,
  ecutrho=293.9945797996531d00,
  nbnd=203,
  occupations='smearing',
  smearing='fd',
  degauss=0.007349864494991328d00,
  input_dft='BEEF-vdW',
  edir=3,
  emaxpos=0.9601258662507326d00,
  eopreg=0.025d00,
  eamp=0.0d00,
  nosym=.false.,
  noinv=.false.,
  nosym_evc=.false.,
  no_t_rev=.false.,
/
&ELECTRONS
  diagonalization='david',
  conv_thr=7.349864494991327e-08,
  mixing_beta=0.05d00,
  electron_maxstep=1000,
  startingwfc='atomic',
/
&IONS
  ion_dynamics='ipi',
/
&CELL
  cell_dynamics='ipi',
/
CELL_PARAMETERS alat
    6.579727202290808d0     0.000000000000000d0     0.000000000000000d0
   -0.000775132442404d0     5.961596420607155d0     0.000000000000000d0
    0.000000000000000d0    -0.000000000000000d0    25.155947251439937d0
ATOMIC_SPECIES
Ti1 47.867d00 Ti.UPF
O1 15.999d00 O.UPF
N1 14.007d00 N.UPF
H1 1.008d00 H.UPF
ATOMIC_POSITIONS {crystal}
Ti1      0.000123603383822d0     0.499897385958537d0     0.238512187198856d0
Ti1      0.500142521004230d0     0.250038178055688d0     0.238522014307695d0
O1       0.000095322930372d0     0.000084774873452d0     0.317452257936818d0
O1       0.500112315057126d0     0.000084209992886d0     0.290342007718641d0
O1       0.698270105622955d0     0.250236102495782d0     0.369213011426276d0
O1       0.301995368073694d0     0.249987007385122d0     0.369214717028816d0
Ti1      0.500158505070872d0     0.500155774594832d0     0.364163076180906d0
Ti1      0.000162087224484d0     0.249991612066862d0     0.368023555011392d0
O1       0.500849071789398d0     0.000174061865131d0     0.451784281169796d0
O1       0.000245216593688d0     0.000098390084258d0     0.421697689871434d0
O1       0.196976838231107d0     0.249780741349112d0     0.503456851858939d0
O1       0.804858365584576d0     0.249891008634680d0     0.503555243182701d0
Ti1      0.000972764567492d0     0.499565603159911d0     0.497802734284114d0
Ti1      0.501255834220640d0     0.250026617477197d0     0.497614683306612d0
O1       0.001351486805957d0     0.994986961328936d0     0.583609615193853d0
O1       0.501366174206035d0     0.998867083867494d0     0.556351294835215d0
O1       0.693832311464701d0     0.253116474819722d0     0.642535200683488d0
O1       0.309735762630796d0     0.252805761602263d0     0.642522428072054d0
Ti1      0.501383989754262d0     0.499818564852650d0     0.625986096516360d0
Ti1      0.001837369442361d0     0.228426311044637d0     0.631809338637957d0
O1       0.500093721748991d0     0.000084921243389d0     0.186906639369252d0
O1       0.001561704380436d0     0.005097629369847d0     0.684596197758476d0
O1       0.198268504441573d0     0.250236248865719d0     0.238667392858710d0
O1       0.801993766892314d0     0.249987153755059d0     0.238669098461250d0
Ti1      0.000123603383822d0     0.999897385958537d0     0.238512187198856d0
Ti1      0.500142521004230d0     0.750038178055688d0     0.238522014307695d0
O1       0.000095322930372d0     0.500084774873452d0     0.317452257936818d0
O1       0.500112315057126d0     0.500084209992886d0     0.290342007718641d0
O1       0.698270105622955d0     0.750236102495782d0     0.369213011426276d0
O1       0.301995368073694d0     0.749987007385122d0     0.369214717028816d0
Ti1      0.500156890730762d0     0.000157772383712d0     0.364094566240812d0
Ti1      0.000162483947971d0     0.750224524806221d0     0.368020999893661d0
O1       0.500836504205256d0     0.499476614934916d0     0.451588382550722d0
O1       0.000319372541679d0     0.499624789138786d0     0.422417501570504d0
O1       0.197150662618807d0     0.749317726865724d0     0.502966490967760d0
O1       0.804695605738908d0     0.749165693036284d0     0.503068561493982d0
Ti1      0.001132753439105d0     0.999346173188833d0     0.496428871090098d0
Ti1      0.501248032723603d0     0.749651326829087d0     0.497496242750511d0
O1       0.001481546044062d0     0.501792899703203d0     0.591901822919703d0
O1       0.500843368758455d0     0.500727130350329d0     0.554853015056356d0
O1       0.693477217969689d0     0.746680511566218d0     0.643808112270090d0
O1       0.310031257393856d0     0.747078596563189d0     0.643691672410455d0
Ti1      0.501964164814331d0     0.000266832866596d0     0.627805438251554d0
Ti1      0.001869075832126d0     0.765447238936451d0     0.635120714733917d0
O1       0.500093721748991d0     0.500084921243389d0     0.186906639369252d0
O1       0.198268504441573d0     0.750236248865719d0     0.238667392858710d0
O1       0.801993766892314d0     0.749987153755059d0     0.238669098461250d0
N1       0.005777758006346d0     0.510700901899658d0     0.717106900038563d0
H1       0.005565272413535d0     0.347018149834290d0     0.729516641469038d0
H1       0.132348031921291d0     0.585087285888843d0     0.732503627129224d0
H1       0.881775326566837d0     0.586946022510898d0     0.733345093132213d0
K_POINTS automatic
4 4 1  0 0 0 
