&CONTROL
  calculation='relax',
  prefix='calc',
  pseudo_dir='/storage/coda1/p-amedford6/0/shared/rich_project_chbe-medford/medford-share/data/pseudos_module/espresso/nninc/pbe/van',
  outdir='.',
  tefield=.true.,
  dipfield=.true.,
  tprnfor=.true.,
  disk_io='none',
/
&SYSTEM
  ibrav=0,
  celldm(1)=1.8897261245650618d0,
  nat=59,
  ntyp=5,
  ecutwfc=29.39945797996531d00,
  ecutrho=293.9945797996531d00,
  nbnd=213,
  occupations='smearing',
  smearing='fd',
  degauss=0.007349864494991328d00,
  input_dft='BEEF-vdW',
  edir=3,
  emaxpos=0.9974967222684066d00,
  eopreg=0.025d00,
  eamp=0.0d00,
  nosym=.false.,
  noinv=.false.,
  nosym_evc=.false.,
  no_t_rev=.false.,
/
&ELECTRONS
  diagonalization='david',
  conv_thr=7.349864494991327e-08,
  mixing_beta=0.05d00,
  electron_maxstep=1000,
  startingpot='file',
  startingwfc='atomic',
/
&IONS
  ion_dynamics='ipi',
/
&CELL
  cell_dynamics='ipi',
/
CELL_PARAMETERS alat
    6.579727202290808d0     0.000000000000000d0     0.000000000000000d0
   -0.000775132442404d0     5.961596420607155d0     0.000000000000000d0
    0.000000000000000d0    -0.000000000000000d0    25.155947251439940d0
ATOMIC_SPECIES
Ti1 47.867d00 Ti.UPF
O1 15.999d00 O.UPF
N1 14.007d00 N.UPF
C1 12.011d00 C.UPF
H1 1.008d00 H.UPF
ATOMIC_POSITIONS {crystal}
Ti1      0.000123603383822d0     0.499897385958536d0     0.238512187198856d0
Ti1      0.500142521004230d0     0.250038178055688d0     0.238522014307695d0
O1       0.000095322930372d0     0.000084774873452d0     0.317452257936818d0
O1       0.500112315057126d0     0.000084209992886d0     0.290342007718641d0
O1       0.698270105622955d0     0.250236102495782d0     0.369213011426276d0
O1       0.301995368073695d0     0.249987007385122d0     0.369214717028816d0
Ti1      0.500198167309398d0     0.485761668506182d0     0.364758343030283d0
Ti1      0.000261424674789d0     0.248709163236136d0     0.368424970923767d0
O1       0.498427945452568d0     0.000839401433600d0     0.451586041848146d0
O1       0.001882992193933d0     0.999479849154423d0     0.422099495650131d0
O1       0.194030788724487d0     0.248815933956468d0     0.503363081064867d0
O1       0.800850636107384d0     0.248672623109438d0     0.503780334896624d0
Ti1      0.999872270682907d0     0.498393351563743d0     0.498621385651442d0
Ti1      0.498760205701699d0     0.249294309378238d0     0.497431711189818d0
O1       0.001401878033953d0     0.995263648059468d0     0.586399750889803d0
O1       0.493672774775032d0     0.997210901292964d0     0.556630908217639d0
O1       0.688090662865132d0     0.256153104874801d0     0.638161111927948d0
O1       0.305342130461084d0     0.258298234040417d0     0.643660257653626d0
Ti1      0.496965048800211d0     0.505357418017409d0     0.624284632413882d0
Ti1      0.986352715711957d0     0.258170413989918d0     0.627013291373782d0
O1       0.500093721748991d0     0.000084921243389d0     0.186906639369252d0
O1       0.987018654057734d0     0.001750860954811d0     0.690678088406383d0
O1       0.198268504441574d0     0.250236248865719d0     0.238667392858710d0
O1       0.801993766892314d0     0.249987153755059d0     0.238669098461250d0
Ti1      0.000123603383822d0     0.999897385958536d0     0.238512187198856d0
Ti1      0.500142521004230d0     0.750038178055688d0     0.238522014307695d0
O1       0.000095322930372d0     0.500084774873452d0     0.317452257936818d0
O1       0.500112315057126d0     0.500084209992886d0     0.290342007718641d0
O1       0.698270105622955d0     0.750236102495782d0     0.369213011426276d0
O1       0.301995368073695d0     0.749987007385122d0     0.369214717028816d0
Ti1      0.500001644927041d0     0.985370751416071d0     0.364779031055315d0
Ti1      0.000183276761494d0     0.748948988039575d0     0.368476322807288d0
O1       0.498652045434987d0     0.498377295625661d0     0.451223848760082d0
O1       0.001460782485842d0     0.499964783615161d0     0.422656139091726d0
O1       0.194023820111374d0     0.750114966522211d0     0.502392844691298d0
O1       0.800881718346728d0     0.750327865278326d0     0.502650400692101d0
Ti1      0.998770735535031d0     0.996076936384392d0     0.497539104005234d0
Ti1      0.499282580781532d0     0.749074217112560d0     0.496824553825509d0
O1       0.999794720531943d0     0.504043889049377d0     0.586703954125255d0
O1       0.494018157006174d0     0.503242775820671d0     0.553518390997796d0
O1       0.688569162597759d0     0.744979494199222d0     0.643163184753072d0
O1       0.304513199089061d0     0.746149711249531d0     0.645999743629579d0
Ti1      0.494829095089598d0     0.000761026349665d0     0.627871682834750d0
Ti1      0.000469770026716d0     0.781620833447402d0     0.642678499701261d0
O1       0.500093721748991d0     0.500084921243389d0     0.186906639369252d0
O1       0.198268504441574d0     0.750236248865719d0     0.238667392858710d0
O1       0.801993766892315d0     0.749987153755059d0     0.238669098461250d0
N1       0.130915160750686d0     0.386425532523671d0     0.733938521234592d0
N1       0.982504364823756d0     0.480194157696911d0     0.698119783448775d0
C1       0.169289262315883d0     0.512818739618038d0     0.783596251239342d0
H1       0.032894692973224d0     0.507485108596857d0     0.808086805167561d0
H1       0.295927561818915d0     0.435535579077457d0     0.804395199577398d0
H1       0.204709233700765d0     0.685490650035141d0     0.773120480782652d0
H1       0.088672609856953d0     0.219986059697254d0     0.740118363036656d0
H1       0.845736610788652d0     0.460638445896029d0     0.716485595330573d0
H1       0.259615847654581d0     0.367215111248445d0     0.710379460961510d0
O1       0.619094304945774d0     0.051594987742790d0     0.746406403314441d0
H1       0.748388246899257d0     0.029987619397422d0     0.726734292876507d0
H1       0.588798498642301d0     0.904738027473653d0     0.760744591487709d0
K_POINTS automatic
4 4 1  0 0 0 
