&CONTROL
  calculation='relax',
  prefix='calc',
  pseudo_dir='/storage/coda1/p-amedford6/0/shared/rich_project_chbe-medford/medford-share/data/pseudos_module/espresso/nninc/pbe/van',
  outdir='.',
  tefield=.true.,
  dipfield=.true.,
  tprnfor=.true.,
  disk_io='none',
/
&SYSTEM
  ibrav=0,
  celldm(1)=1.8897261245650618d0,
  nat=55,
  ntyp=5,
  ecutwfc=29.39945797996531d00,
  ecutrho=293.9945797996531d00,
  nbnd=206,
  occupations='smearing',
  smearing='fd',
  degauss=0.007349864494991328d00,
  input_dft='BEEF-vdW',
  edir=3,
  emaxpos=0.04255884360215334d00,
  eopreg=0.025d00,
  eamp=0.0d00,
  nosym=.false.,
  noinv=.false.,
  nosym_evc=.false.,
  no_t_rev=.false.,
/
&ELECTRONS
  diagonalization='david',
  conv_thr=7.349864494991327e-08,
  mixing_beta=0.05d00,
  electron_maxstep=1000,
  startingpot='file',
  startingwfc='atomic',
/
&IONS
  ion_dynamics='ipi',
/
&CELL
  cell_dynamics='ipi',
/
CELL_PARAMETERS alat
    6.579727202290808d0     0.000000000000000d0     0.000000000000000d0
   -0.000775132442404d0     5.961596420607155d0     0.000000000000000d0
    0.000000000000000d0    -0.000000000000000d0    25.155947251439940d0
ATOMIC_SPECIES
Ti1 47.867d00 Ti.UPF
O1 15.999d00 O.UPF
C1 12.011d00 C.UPF
H1 1.008d00 H.UPF
N1 14.007d00 N.UPF
ATOMIC_POSITIONS {crystal}
Ti1      0.000123603383822d0     0.499897385958536d0     0.238512187198856d0
Ti1      0.500142521004230d0     0.250038178055688d0     0.238522014307695d0
O1       0.000095322930372d0     0.000084774873452d0     0.317452257936818d0
O1       0.500112315057126d0     0.000084209992886d0     0.290342007718641d0
O1       0.698270105622955d0     0.250236102495782d0     0.369213011426276d0
O1       0.301995368073695d0     0.249987007385122d0     0.369214717028816d0
Ti1      0.500198167309398d0     0.485761668506182d0     0.364758343030283d0
Ti1      0.000261424674789d0     0.248709163236136d0     0.368424970923767d0
O1       0.501254175481393d0     0.000206976850383d0     0.450392385301112d0
O1       0.001882992193933d0     0.999479849154423d0     0.422099495650131d0
O1       0.198117023325746d0     0.252218273475957d0     0.501668598106933d0
O1       0.802664301579735d0     0.252860127054388d0     0.501521562897850d0
Ti1      0.006251479228057d0     0.494086304102875d0     0.502278023319439d0
Ti1      0.508324538266253d0     0.250116341345974d0     0.496021968743482d0
O1       0.000801262638994d0     0.007566712280167d0     0.580484364370511d0
O1       0.500722263871013d0     0.002094580917401d0     0.553391411256793d0
O1       0.691018955894738d0     0.252392198757482d0     0.638513666870855d0
O1       0.312305277055361d0     0.252420667545293d0     0.638456203954966d0
Ti1      0.501472375180473d0     0.501847825015507d0     0.624089355423308d0
Ti1      0.998658838356654d0     0.235264745306582d0     0.628318360140612d0
O1       0.500093721748991d0     0.000084921243389d0     0.186906639369252d0
O1       0.002502732483379d0     0.002441218680658d0     0.681190968917295d0
O1       0.198268504441574d0     0.250236248865719d0     0.238667392858710d0
O1       0.801993766892314d0     0.249987153755059d0     0.238669098461250d0
Ti1      0.000123603383822d0     0.999897385958536d0     0.238512187198856d0
Ti1      0.500142521004230d0     0.750038178055688d0     0.238522014307695d0
O1       0.000095322930372d0     0.500084774873452d0     0.317452257936818d0
O1       0.500112315057126d0     0.500084209992886d0     0.290342007718641d0
O1       0.698270105622955d0     0.750236102495782d0     0.369213011426276d0
O1       0.301995368073695d0     0.749987007385122d0     0.369214717028816d0
Ti1      0.500001644927041d0     0.985370751416071d0     0.364779031055315d0
Ti1      0.000183276761494d0     0.748948988039575d0     0.368476322807288d0
O1       0.501252628664022d0     0.501765770567148d0     0.450341577716418d0
O1       0.001460782485842d0     0.499964783615161d0     0.422656139091726d0
O1       0.197794819465308d0     0.751505802471331d0     0.502101899261800d0
O1       0.803319514614562d0     0.752493035252739d0     0.501988716615863d0
Ti1      0.006346934226191d0     0.992663827094471d0     0.498656870432014d0
Ti1      0.508352808111685d0     0.749982103398981d0     0.496352883606046d0
O1       0.001718938381907d0     0.499715451432132d0     0.584846575074221d0
O1       0.501583556453904d0     0.501748966567787d0     0.552726798292121d0
O1       0.691211928958004d0     0.750025664818463d0     0.639130702152924d0
O1       0.313458170449429d0     0.750936738859292d0     0.638591648439097d0
Ti1      0.497328435961132d0     0.002162190035319d0     0.624799989805434d0
Ti1      0.996970191482583d0     0.753946352872716d0     0.642248429966905d0
O1       0.500093721748991d0     0.500084921243389d0     0.186906639369252d0
O1       0.198268504441574d0     0.750236248865719d0     0.238667392858710d0
O1       0.801993766892315d0     0.749987153755059d0     0.238669098461250d0
C1       0.005524801665692d0     0.517825250719234d0     0.708944567039643d0
H1       0.883725758913560d0     0.604040415274075d0     0.730495617057974d0
H1       0.984648092148658d0     0.340608029852982d0     0.717981116525655d0
H1       0.149968116202768d0     0.566670834579790d0     0.727096522582430d0
N1       0.724117706887176d0     0.300789594352187d0     0.860116183037040d0
H1       0.691997525774749d0     0.468139211487931d0     0.856205798189410d0
H1       0.623798379393602d0     0.217270324095461d0     0.836713945811330d0
H1       0.690571267889365d0     0.258862650804643d0     0.898211047835054d0
K_POINTS automatic
4 4 1  0 0 0 
