&CONTROL
  calculation='relax',
  prefix='calc',
  pseudo_dir='/storage/coda1/p-amedford6/0/shared/rich_project_chbe-medford/medford-share/data/pseudos_module/espresso/nninc/pbe/van',
  outdir='.',
  tefield=.true.,
  dipfield=.true.,
  tprnfor=.true.,
  disk_io='none',
/
&SYSTEM
  ibrav=0,
  celldm(1)=1.8897261245650618d0,
  nat=56,
  ntyp=5,
  ecutwfc=29.39945797996531d00,
  ecutrho=293.9945797996531d00,
  nbnd=211,
  occupations='smearing',
  smearing='fd',
  degauss=0.007349864494991328d00,
  input_dft='BEEF-vdW',
  edir=3,
  emaxpos=0.007149797391287738d00,
  eopreg=0.025d00,
  eamp=0.0d00,
  nosym=.false.,
  noinv=.false.,
  nosym_evc=.false.,
  no_t_rev=.false.,
/
&ELECTRONS
  diagonalization='david',
  conv_thr=7.349864494991327e-08,
  mixing_beta=0.05d00,
  electron_maxstep=1000,
  startingwfc='atomic',
/
&IONS
  ion_dynamics='ipi',
/
&CELL
  cell_dynamics='ipi',
/
CELL_PARAMETERS alat
    6.579727202290808d0     0.000000000000000d0     0.000000000000000d0
   -0.000775132442404d0     5.961596420607155d0     0.000000000000000d0
    0.000000000000000d0    -0.000000000000000d0    25.155947251439940d0
ATOMIC_SPECIES
Ti1 47.867d00 Ti.UPF
O1 15.999d00 O.UPF
N1 14.007d00 N.UPF
C1 12.011d00 C.UPF
H1 1.008d00 H.UPF
ATOMIC_POSITIONS {crystal}
Ti1      0.000123603383822d0     0.499897385958536d0     0.238512187198856d0
Ti1      0.500142521004230d0     0.250038178055688d0     0.238522014307695d0
O1       0.000095322930372d0     0.000084774873452d0     0.317452257936818d0
O1       0.500112315057126d0     0.000084209992886d0     0.290342007718641d0
O1       0.698270105622955d0     0.250236102495782d0     0.369213011426276d0
O1       0.301995368073695d0     0.249987007385122d0     0.369214717028816d0
Ti1      0.500198167309398d0     0.485761668506182d0     0.364758343030283d0
Ti1      0.000261424674789d0     0.248709163236136d0     0.368424970923767d0
O1       0.501520790760553d0     0.995222674104094d0     0.450681911017780d0
O1       0.001882992193933d0     0.999479849154423d0     0.422099495650131d0
O1       0.195882275335209d0     0.245228078591565d0     0.501394071164716d0
O1       0.803199447151196d0     0.245657696528719d0     0.501603347485909d0
Ti1      0.009471690423706d0     0.490239076830711d0     0.501049008072471d0
Ti1      0.512984252645518d0     0.249329092644383d0     0.497079306069506d0
O1       0.999286457237357d0     0.987043578770299d0     0.581838045647929d0
O1       0.501087706256445d0     0.996240857949453d0     0.552742860635599d0
O1       0.690793862859944d0     0.235102269693263d0     0.638649884506400d0
O1       0.310844490663019d0     0.234943935991020d0     0.638379947457823d0
Ti1      0.499294781445974d0     0.494262770619949d0     0.627239634496339d0
Ti1      0.000738908482100d0     0.239323953871918d0     0.630715876766384d0
O1       0.500093721748991d0     0.000084921243389d0     0.186906639369252d0
O1       0.000564279083908d0     0.976135446731900d0     0.683224784562171d0
O1       0.198268504441574d0     0.250236248865719d0     0.238667392858710d0
O1       0.801993766892314d0     0.249987153755059d0     0.238669098461250d0
Ti1      0.000123603383822d0     0.999897385958536d0     0.238512187198856d0
Ti1      0.500142521004230d0     0.750038178055688d0     0.238522014307695d0
O1       0.000095322930372d0     0.500084774873452d0     0.317452257936818d0
O1       0.500112315057126d0     0.500084209992886d0     0.290342007718641d0
O1       0.698270105622955d0     0.750236102495782d0     0.369213011426276d0
O1       0.301995368073695d0     0.749987007385122d0     0.369214717028816d0
Ti1      0.500001644927041d0     0.985370751416071d0     0.364779031055315d0
Ti1      0.000183276761494d0     0.748948988039575d0     0.368476322807288d0
O1       0.502220753599101d0     0.497022104512455d0     0.451485881610533d0
O1       0.001460782485842d0     0.499964783615161d0     0.422656139091726d0
O1       0.196132353692853d0     0.745320133567235d0     0.502051734132362d0
O1       0.804757099457460d0     0.746494549902492d0     0.502357515153552d0
Ti1      0.009130928524824d0     0.992330538010717d0     0.498035262936795d0
Ti1      0.511647060942836d0     0.748069961102076d0     0.496795974205035d0
O1       0.002510417302865d0     0.480419064388997d0     0.585178560906296d0
O1       0.501736955228685d0     0.490949118472116d0     0.554296600481296d0
O1       0.689462340609477d0     0.739339969047372d0     0.638910302172447d0
O1       0.310983108712414d0     0.743017111308532d0     0.637302351091150d0
Ti1      0.500215433588453d0     0.995225960842158d0     0.624253257119149d0
Ti1      0.998278536008073d0     0.768305685509132d0     0.635401227735888d0
O1       0.500093721748991d0     0.500084921243389d0     0.186906639369252d0
O1       0.198268504441574d0     0.750236248865719d0     0.238667392858710d0
O1       0.801993766892315d0     0.749987153755059d0     0.238669098461250d0
N1       0.999171096917645d0     0.342633619507739d0     0.744227209721702d0
N1       0.999577649390164d0     0.438128382895685d0     0.701986342733344d0
C1       0.004112057623950d0     0.480359088141516d0     0.794068240607320d0
H1       0.886973342518251d0     0.608002535621921d0     0.793657072109703d0
H1       0.988304514401974d0     0.367820023853446d0     0.827392955413323d0
H1       0.151296713952254d0     0.563151019624159d0     0.794958994121531d0
O1       0.476058283322275d0     0.497071941496161d0     0.723095259710619d0
H1       0.524106294357626d0     0.628078931537704d0     0.742299857120771d0
H1       0.491625997581632d0     0.368156096212119d0     0.745342175316309d0
K_POINTS automatic
4 4 1  0 0 0 
