&CONTROL
  calculation='relax',
  prefix='calc',
  pseudo_dir='/storage/coda1/p-amedford6/0/shared/rich_project_chbe-medford/medford-share/data/pseudos_module/espresso/nninc/pbe/van',
  outdir='.',
  tefield=.true.,
  dipfield=.true.,
  tprnfor=.true.,
  disk_io='none',
/
&SYSTEM
  ibrav=0,
  celldm(1)=1.8897261245650618d0,
  nat=47,
  ntyp=2,
  ecutwfc=29.39945797996531d00,
  ecutrho=293.9945797996531d00,
  nbnd=199,
  occupations='smearing',
  smearing='fd',
  degauss=0.007349864494991328d00,
  nspin=2,
  starting_magnetization(1)=0.0d00,
  starting_magnetization(2)=0.0d00,
  input_dft='BEEF-vdW',
  edir=3,
  emaxpos=0.93476087143011d00,
  eopreg=0.025d00,
  eamp=0.0d00,
  nosym=.false.,
  noinv=.false.,
  nosym_evc=.false.,
  no_t_rev=.false.,
/
&ELECTRONS
  diagonalization='david',
  conv_thr=7.349864494991327e-08,
  mixing_beta=0.05d00,
  electron_maxstep=1000,
  startingwfc='atomic',
/
&IONS
  ion_dynamics='ipi',
/
&CELL
  cell_dynamics='ipi',
/
CELL_PARAMETERS alat
    6.579727202290808d0     0.000000000000000d0     0.000000000000000d0
   -0.000775132442404d0     5.961596420607155d0     0.000000000000000d0
    0.000000000000000d0    -0.000000000000000d0    25.155947251439940d0
ATOMIC_SPECIES
Ti1 47.867d00 Ti.UPF
O1 15.999d00 O.UPF
ATOMIC_POSITIONS {crystal}
Ti1      0.000123603383822d0     0.499897385958537d0     0.238512187198856d0
Ti1      0.500142521004230d0     0.250038178055688d0     0.238522014307695d0
O1       0.000095322930372d0     0.000084774873452d0     0.317452257936818d0
O1       0.500112315057126d0     0.000084209992886d0     0.290342007718641d0
O1       0.698270105622955d0     0.250236102495782d0     0.369213011426276d0
O1       0.301995368073695d0     0.249987007385122d0     0.369214717028816d0
Ti1      0.500123069656695d0     0.499897434748516d0     0.369269885789632d0
Ti1      0.000141987277103d0     0.250038226845667d0     0.369279712898471d0
O1       0.500094789203245d0     0.000084823663431d0     0.448209956527594d0
O1       0.000111781329999d0     0.000084258782866d0     0.421099706309416d0
O1       0.198269571895828d0     0.250236151285761d0     0.499970710017052d0
O1       0.801994834346568d0     0.249987056175101d0     0.499972415619592d0
Ti1      0.000122535929568d0     0.499897483538495d0     0.500027584380408d0
Ti1      0.500141453549976d0     0.250038275635646d0     0.500037411489247d0
O1       0.000094255476118d0     0.000084872453410d0     0.578967655118370d0
O1       0.500111247602872d0     0.000084307572845d0     0.551857404900192d0
O1       0.698269038168701d0     0.250236200075740d0     0.630728408607828d0
O1       0.301994300619441d0     0.249987104965080d0     0.630730114210368d0
Ti1      0.500122002202441d0     0.499897532328474d0     0.630785282971183d0
Ti1      0.000140919822849d0     0.250038324425625d0     0.630795110080022d0
O1       0.500093721748991d0     0.000084921243389d0     0.186906639369252d0
O1       0.000110713875745d0     0.000084356362824d0     0.682615103490968d0
O1       0.198268504441574d0     0.250236248865719d0     0.238667392858710d0
O1       0.801993766892314d0     0.249987153755059d0     0.238669098461250d0
Ti1      0.000123603383822d0     0.999897385958537d0     0.238512187198856d0
Ti1      0.500142521004230d0     0.750038178055688d0     0.238522014307695d0
O1       0.000095322930372d0     0.500084774873452d0     0.317452257936818d0
O1       0.500112315057126d0     0.500084209992886d0     0.290342007718641d0
O1       0.698270105622955d0     0.750236102495782d0     0.369213011426276d0
O1       0.301995368073695d0     0.749987007385122d0     0.369214717028816d0
Ti1      0.500123069656695d0     0.999897434748516d0     0.369269885789632d0
Ti1      0.000141987277103d0     0.750038226845667d0     0.369279712898471d0
O1       0.500094789203245d0     0.500084823663431d0     0.448209956527594d0
O1       0.000111781329999d0     0.500084258782866d0     0.421099706309416d0
O1       0.198269571895828d0     0.750236151285761d0     0.499970710017052d0
O1       0.801994834346568d0     0.749987056175101d0     0.499972415619592d0
Ti1      0.000122535929568d0     0.999897483538495d0     0.500027584380408d0
Ti1      0.500141453549976d0     0.750038275635646d0     0.500037411489247d0
O1       0.000094255476118d0     0.500084872453410d0     0.578967655118370d0
O1       0.500111247602872d0     0.500084307572845d0     0.551857404900192d0
O1       0.698269038168701d0     0.750236200075740d0     0.630728408607828d0
O1       0.301994300619441d0     0.749987104965080d0     0.630730114210368d0
Ti1      0.500122002202441d0     0.999897532328474d0     0.630785282971183d0
Ti1      0.000140919822849d0     0.750038324425625d0     0.630795110080022d0
O1       0.500093721748991d0     0.500084921243389d0     0.186906639369252d0
O1       0.198268504441574d0     0.750236248865719d0     0.238667392858710d0
O1       0.801993766892315d0     0.749987153755059d0     0.238669098461250d0
K_POINTS automatic
4 4 1  0 0 0 
