&CONTROL
  calculation='relax',
  prefix='calc',
  pseudo_dir='/storage/coda1/p-amedford6/0/shared/rich_project_chbe-medford/medford-share/data/pseudos_module/espresso/nninc/pbe/van',
  outdir='.',
  tefield=.true.,
  dipfield=.true.,
  tprnfor=.true.,
  disk_io='none',
/
&SYSTEM
  ibrav=0,
  celldm(1)=1.8897261245650618d0,
  nat=53,
  ntyp=5,
  ecutwfc=29.39945797996531d00,
  ecutrho=293.9945797996531d00,
  nbnd=205,
  occupations='smearing',
  smearing='fd',
  degauss=0.007349864494991328d00,
  nspin=2,
  starting_magnetization(1)=0.0d00,
  starting_magnetization(2)=0.0d00,
  starting_magnetization(3)=0.0d00,
  starting_magnetization(4)=0.04d00,
  starting_magnetization(5)=0.046375d00,
  input_dft='BEEF-vdW',
  edir=3,
  emaxpos=0.9813757175121539d00,
  eopreg=0.025d00,
  eamp=0.0d00,
  nosym=.false.,
  noinv=.false.,
  nosym_evc=.false.,
  no_t_rev=.false.,
/
&ELECTRONS
  diagonalization='david',
  conv_thr=7.349864494991327e-08,
  mixing_beta=0.05d00,
  electron_maxstep=1000,
  startingwfc='atomic',
/
&IONS
  ion_dynamics='ipi',
/
&CELL
  cell_dynamics='ipi',
/
CELL_PARAMETERS alat
    6.579727202290808d0     0.000000000000000d0     0.000000000000000d0
   -0.000775132442404d0     5.961596420607155d0     0.000000000000000d0
    0.000000000000000d0    -0.000000000000000d0    25.155947251439940d0
ATOMIC_SPECIES
Ti1 47.867d00 Ti.UPF
O1 15.999d00 O.UPF
H1 1.008d00 H.UPF
N1 14.007d00 N.UPF
C1 12.011d00 C.UPF
ATOMIC_POSITIONS {crystal}
Ti1      0.000123603383822d0     0.499897385958536d0     0.238512187198856d0
Ti1      0.500142521004230d0     0.250038178055688d0     0.238522014307695d0
O1       0.000095322930372d0     0.000084774873452d0     0.317452257936818d0
O1       0.500112315057126d0     0.000084209992886d0     0.290342007718641d0
O1       0.698270105622955d0     0.250236102495782d0     0.369213011426276d0
O1       0.301995368073695d0     0.249987007385122d0     0.369214717028816d0
Ti1      0.500198167309398d0     0.485761668506182d0     0.364758343030283d0
Ti1      0.000261424674789d0     0.248709163236136d0     0.368424970923767d0
O1       0.499787727201426d0     0.001266191306493d0     0.450135036824506d0
O1       0.001882992193933d0     0.999479849154423d0     0.422099495650131d0
O1       0.200206949023620d0     0.251758286527191d0     0.501500430154797d0
O1       0.804719172054513d0     0.250341430239652d0     0.501158219199322d0
Ti1      0.991618088657473d0     0.495654687763993d0     0.501739638934723d0
Ti1      0.487805530116545d0     0.251200691259661d0     0.495650178138519d0
O1       0.998705134528265d0     0.007300166829046d0     0.582032164267560d0
O1       0.503151467849052d0     0.003167354605462d0     0.553219512273813d0
O1       0.688158665522809d0     0.260344235719691d0     0.639116987202080d0
O1       0.310851993302560d0     0.259811467312022d0     0.637755982463040d0
Ti1      0.502456939826121d0     0.507396960029753d0     0.623450673782867d0
Ti1      0.009124053849588d0     0.262992616987824d0     0.630872881258003d0
O1       0.500093721748991d0     0.000084921243389d0     0.186906639369252d0
O1       0.003972878013726d0     0.009759109350947d0     0.683724614846465d0
O1       0.198268504441574d0     0.250236248865719d0     0.238667392858710d0
O1       0.801993766892314d0     0.249987153755059d0     0.238669098461250d0
Ti1      0.000123603383822d0     0.999897385958536d0     0.238512187198856d0
Ti1      0.500142521004230d0     0.750038178055688d0     0.238522014307695d0
O1       0.000095322930372d0     0.500084774873452d0     0.317452257936818d0
O1       0.500112315057126d0     0.500084209992886d0     0.290342007718641d0
O1       0.698270105622955d0     0.750236102495782d0     0.369213011426276d0
O1       0.301995368073695d0     0.749987007385122d0     0.369214717028816d0
Ti1      0.500001644927041d0     0.985370751416071d0     0.364779031055315d0
Ti1      0.000183276761494d0     0.748948988039575d0     0.368476322807288d0
O1       0.500086955721363d0     0.501872989095512d0     0.450070108934637d0
O1       0.001460782485842d0     0.499964783615161d0     0.422656139091726d0
O1       0.199330851364632d0     0.752958423895723d0     0.501919058040640d0
O1       0.805018101911023d0     0.751621284671970d0     0.501634881237170d0
Ti1      0.991238766283297d0     0.995157563548492d0     0.499553145588130d0
Ti1      0.487397445495662d0     0.751021579162435d0     0.495732639302377d0
O1       0.999580288839326d0     0.496622324563861d0     0.582116931823703d0
O1       0.502327493423933d0     0.503837120548031d0     0.552262662057579d0
O1       0.689878865068528d0     0.755815286462613d0     0.639344092482498d0
O1       0.312939300651563d0     0.756904774748212d0     0.638931877961131d0
Ti1      0.507591598250377d0     0.006442686638209d0     0.624447957214229d0
Ti1      0.007360744565613d0     0.785854924142010d0     0.639529198456641d0
O1       0.500093721748991d0     0.500084921243389d0     0.186906639369252d0
O1       0.198268504441574d0     0.750236248865719d0     0.238667392858710d0
O1       0.801993766892315d0     0.749987153755059d0     0.238669098461250d0
H1       0.852821010820547d0     0.501758980022506d0     0.707116933171192d0
N1       0.997863100555586d0     0.504081021499764d0     0.693398919737720d0
C1       0.134764959330744d0     0.501400121676609d0     0.739889926376051d0
H1       0.206725765146208d0     0.664540447306360d0     0.746243568300405d0
H1       0.050444199491522d0     0.458669764953767d0     0.775844795655055d0
H1       0.253930596125286d0     0.375869751404020d0     0.735058778698634d0
K_POINTS automatic
4 4 1  0 0 0 
