&CONTROL
  calculation='relax',
  prefix='calc',
  pseudo_dir='/storage/coda1/p-amedford6/0/shared/rich_project_chbe-medford/medford-share/data/pseudos_module/espresso/nninc/pbe/van',
  outdir='.',
  tefield=.true.,
  dipfield=.true.,
  tprnfor=.true.,
  disk_io='none',
/
&SYSTEM
  ibrav=0,
  celldm(1)=1.8897261245650618d0,
  nat=56,
  ntyp=5,
  ecutwfc=29.39945797996531d00,
  ecutrho=293.9945797996531d00,
  nbnd=211,
  occupations='smearing',
  smearing='fd',
  degauss=0.007349864494991328d00,
  input_dft='BEEF-vdW',
  edir=3,
  emaxpos=0.9776609775079513d00,
  eopreg=0.025d00,
  eamp=0.0d00,
  nosym=.false.,
  noinv=.false.,
  nosym_evc=.false.,
  no_t_rev=.false.,
/
&ELECTRONS
  diagonalization='david',
  conv_thr=7.349864494991327e-08,
  mixing_beta=0.05d00,
  electron_maxstep=1000,
  startingpot='file',
  startingwfc='atomic',
/
&IONS
  ion_dynamics='ipi',
/
&CELL
  cell_dynamics='ipi',
/
CELL_PARAMETERS alat
    6.579727202290808d0     0.000000000000000d0     0.000000000000000d0
   -0.000775132442404d0     5.961596420607155d0     0.000000000000000d0
    0.000000000000000d0    -0.000000000000000d0    25.155947251439940d0
ATOMIC_SPECIES
Ti1 47.867d00 Ti.UPF
O1 15.999d00 O.UPF
N1 14.007d00 N.UPF
C1 12.011d00 C.UPF
H1 1.008d00 H.UPF
ATOMIC_POSITIONS {crystal}
Ti1      0.000123603383822d0     0.499897385958536d0     0.238512187198856d0
Ti1      0.500142521004230d0     0.250038178055688d0     0.238522014307695d0
O1       0.000095322930372d0     0.000084774873452d0     0.317452257936818d0
O1       0.500112315057126d0     0.000084209992886d0     0.290342007718641d0
O1       0.698270105622955d0     0.250236102495782d0     0.369213011426276d0
O1       0.301995368073695d0     0.249987007385122d0     0.369214717028816d0
Ti1      0.500198167309398d0     0.485761668506182d0     0.364758343030283d0
Ti1      0.000261424674789d0     0.248709163236136d0     0.368424970923767d0
O1       0.498326496967191d0     0.999825510237684d0     0.451334057730875d0
O1       0.001882992193933d0     0.999479849154423d0     0.422099495650131d0
O1       0.196431174362416d0     0.247948050377685d0     0.502907880282941d0
O1       0.805008288033844d0     0.252341197087097d0     0.501000226318031d0
Ti1      0.992094499250385d0     0.506694574048728d0     0.500111640868204d0
Ti1      0.491600373486896d0     0.244228918111065d0     0.496917354118684d0
O1       0.984226954442792d0     0.004962156201217d0     0.582469749165879d0
O1       0.510725869819123d0     0.003996397749104d0     0.554077882452247d0
O1       0.688876105152359d0     0.265172948586608d0     0.640273120552203d0
O1       0.299204042674648d0     0.246794519834826d0     0.631333510738529d0
Ti1      0.495010639788684d0     0.515630588227078d0     0.630465429499725d0
Ti1      0.995004862863226d0     0.256955958371005d0     0.627289975992177d0
O1       0.500093721748991d0     0.000084921243389d0     0.186906639369252d0
O1       0.999195608200436d0     0.002605153553382d0     0.684641205378316d0
O1       0.198268504441574d0     0.250236248865719d0     0.238667392858710d0
O1       0.801993766892314d0     0.249987153755059d0     0.238669098461250d0
Ti1      0.000123603383822d0     0.999897385958536d0     0.238512187198856d0
Ti1      0.500142521004230d0     0.750038178055688d0     0.238522014307695d0
O1       0.000095322930372d0     0.500084774873452d0     0.317452257936818d0
O1       0.500112315057126d0     0.500084209992886d0     0.290342007718641d0
O1       0.698270105622955d0     0.750236102495782d0     0.369213011426276d0
O1       0.301995368073695d0     0.749987007385122d0     0.369214717028816d0
Ti1      0.500001644927041d0     0.985370751416071d0     0.364779031055315d0
Ti1      0.000183276761494d0     0.748948988039575d0     0.368476322807288d0
O1       0.497461898046347d0     0.499667591839615d0     0.450940429391056d0
O1       0.001460782485842d0     0.499964783615161d0     0.422656139091726d0
O1       0.195625389686971d0     0.753092922993349d0     0.503088188670617d0
O1       0.805098052867479d0     0.750622199211608d0     0.501141614643565d0
Ti1      0.994982065537370d0     0.005983312568733d0     0.497331669960913d0
Ti1      0.491074709644165d0     0.738386176872660d0     0.499306868153158d0
O1       0.990977979932702d0     0.500641360608572d0     0.583980185778540d0
O1       0.499346350061664d0     0.507490747004253d0     0.553831417142927d0
O1       0.688726041062793d0     0.748166072577687d0     0.642539133665968d0
O1       0.301668059916382d0     0.767316576092804d0     0.633691770317642d0
Ti1      0.496849777107368d0     0.017378594407633d0     0.625718660829880d0
Ti1      0.998580556360364d0     0.786323427873213d0     0.637465097223887d0
O1       0.500093721748991d0     0.500084921243389d0     0.186906639369252d0
O1       0.198268504441574d0     0.750236248865719d0     0.238667392858710d0
O1       0.801993766892315d0     0.749987153755059d0     0.238669098461250d0
N1       0.194477622930685d0     0.479371530516429d0     0.730228984374435d0
N1       0.028766272246088d0     0.497286517687703d0     0.695888536464631d0
C1       0.385367055847813d0     0.487814176902214d0     0.717055661027741d0
H1       0.477922706020796d0     0.459804189162342d0     0.752574900327522d0
H1       0.152251615486106d0     0.445105674758087d0     0.768415315646650d0
H1       0.902787083755384d0     0.479262887732603d0     0.718920135045521d0
O1       0.495926967952866d0     0.005720672710853d0     0.724872167746649d0
H1       0.614954760623105d0     0.909134971764467d0     0.725415150252625d0
H1       0.378906469520009d0     0.907331780966022d0     0.728084438851535d0
K_POINTS automatic
4 4 1  0 0 0 
