&CONTROL
  calculation='relax',
  prefix='calc',
  pseudo_dir='/storage/coda1/p-amedford6/0/shared/rich_project_chbe-medford/medford-share/data/pseudos_module/espresso/nninc/pbe/van',
  outdir='.',
  tefield=.true.,
  dipfield=.true.,
  tprnfor=.true.,
  disk_io='none',
/
&SYSTEM
  ibrav=0,
  celldm(1)=1.8897261245650618d0,
  nat=55,
  ntyp=5,
  ecutwfc=29.39945797996531d00,
  ecutrho=293.9945797996531d00,
  nbnd=211,
  occupations='smearing',
  smearing='fd',
  degauss=0.007349864494991328d00,
  input_dft='BEEF-vdW',
  edir=3,
  emaxpos=0.989947152837202d00,
  eopreg=0.025d00,
  eamp=0.0d00,
  nosym=.false.,
  noinv=.false.,
  nosym_evc=.false.,
  no_t_rev=.false.,
/
&ELECTRONS
  diagonalization='david',
  conv_thr=7.349864494991327e-08,
  mixing_beta=0.05d00,
  electron_maxstep=1000,
  startingpot='file',
  startingwfc='atomic',
/
&IONS
  ion_dynamics='ipi',
/
&CELL
  cell_dynamics='ipi',
/
CELL_PARAMETERS alat
    6.579727202290808d0     0.000000000000000d0     0.000000000000000d0
   -0.000775132442404d0     5.961596420607155d0     0.000000000000000d0
    0.000000000000000d0    -0.000000000000000d0    25.155947251439940d0
ATOMIC_SPECIES
O1 15.999d00 O.UPF
Ti1 47.867d00 Ti.UPF
N1 14.007d00 N.UPF
H1 1.008d00 H.UPF
C1 12.011d00 C.UPF
ATOMIC_POSITIONS {crystal}
O1       0.500093721748991d0     0.000084921243389d0     0.186906639369252d0
O1       0.500093721748991d0     0.500084921243389d0     0.186906639369252d0
Ti1      0.000123603383822d0     0.499897385958536d0     0.238512187198856d0
Ti1      0.000123603383822d0     0.999897385958536d0     0.238512187198856d0
Ti1      0.500142521004230d0     0.250038178055688d0     0.238522014307695d0
Ti1      0.500142521004230d0     0.750038178055688d0     0.238522014307695d0
O1       0.198268504441574d0     0.250236248865719d0     0.238667392858710d0
O1       0.198268504441574d0     0.750236248865719d0     0.238667392858710d0
O1       0.801993766892314d0     0.249987153755059d0     0.238669098461250d0
O1       0.801993766892315d0     0.749987153755059d0     0.238669098461250d0
O1       0.500112315057126d0     0.000084209992886d0     0.290342007718641d0
O1       0.500112315057126d0     0.500084209992886d0     0.290342007718641d0
O1       0.000095322930372d0     0.000084774873452d0     0.317452257936818d0
O1       0.000095322930372d0     0.500084774873452d0     0.317452257936818d0
Ti1      0.500198167309398d0     0.485761668506182d0     0.364758343030283d0
Ti1      0.500001644927041d0     0.985370751416071d0     0.364779031055315d0
Ti1      0.000261424674789d0     0.248709163236136d0     0.368424970923767d0
Ti1      0.000183276761494d0     0.748948988039575d0     0.368476322807288d0
O1       0.698270105622955d0     0.250236102495782d0     0.369213011426276d0
O1       0.698270105622955d0     0.750236102495782d0     0.369213011426276d0
O1       0.301995368073695d0     0.249987007385122d0     0.369214717028816d0
O1       0.301995368073695d0     0.749987007385122d0     0.369214717028816d0
O1       0.001882992193933d0     0.999479849154423d0     0.422099495650131d0
O1       0.001460782485842d0     0.499964783615161d0     0.422656139091726d0
O1       0.497484760034219d0     0.499012326459337d0     0.450623606931747d0
O1       0.498230446587721d0     0.999362908416908d0     0.450621188860721d0
Ti1      0.989756184853134d0     0.003757052470360d0     0.498754910389873d0
Ti1      0.990061506446196d0     0.503108188884649d0     0.501529681551569d0
Ti1      0.485680596931595d0     0.749355098807772d0     0.496493244013877d0
Ti1      0.485618833743638d0     0.250285822974472d0     0.496680097839150d0
O1       0.803156870487506d0     0.750243273549364d0     0.501433639728435d0
O1       0.197181859209947d0     0.751167966267186d0     0.501942778199786d0
O1       0.803347257909500d0     0.250219505932332d0     0.501805684188918d0
O1       0.195913445864422d0     0.247762415345443d0     0.502357864795993d0
O1       0.498381008601706d0     0.497004171021737d0     0.553471031312568d0
O1       0.501361045308743d0     0.998065066730804d0     0.553140528216715d0
O1       0.993082174439212d0     0.996196658797189d0     0.583316094801329d0
O1       0.999738733239964d0     0.505838051596626d0     0.582529716919981d0
Ti1      0.494649622946504d0     0.494902932193084d0     0.625583120047982d0
Ti1      0.502610896439416d0     0.994852302346435d0     0.624570557886191d0
Ti1      0.997788811658539d0     0.217664531174515d0     0.640573609379050d0
Ti1      0.001299771167123d0     0.742559053313737d0     0.629639004693366d0
O1       0.308255535395115d0     0.243091177404539d0     0.638658626180767d0
O1       0.685720083739264d0     0.245308895897861d0     0.639980503699203d0
O1       0.307774544223876d0     0.746674304171465d0     0.637451133460171d0
O1       0.685733256143575d0     0.743808011236959d0     0.638936991996032d0
O1       0.998893160820397d0     0.993276795618172d0     0.684962535722806d0
N1       0.908916564103213d0     0.501281288529155d0     0.738909680164353d0
H1       0.756882928193256d0     0.473711468305088d0     0.732963444257490d0
H1       0.246927675531709d0     0.225205444711948d0     0.757035827025766d0
H1       0.920762760505721d0     0.667775003760830d0     0.749799893284457d0
N1       0.325334229519720d0     0.330666840632217d0     0.781591241226106d0
C1       0.439872131644943d0     0.478689742827124d0     0.766169459015002d0
H1       0.513649585067224d0     0.599914462035242d0     0.792987666305152d0
O1       0.995872488892775d0     0.497624646312804d0     0.686633550654210d0
K_POINTS automatic
4 4 1  0 0 0 
