&CONTROL
  calculation='relax',
  prefix='calc',
  pseudo_dir='/storage/coda1/p-amedford6/0/shared/rich_project_chbe-medford/medford-share/data/pseudos_module/espresso/nninc/pbe/van',
  outdir='.',
  tefield=.true.,
  dipfield=.true.,
  tprnfor=.true.,
  disk_io='none',
/
&SYSTEM
  ibrav=0,
  celldm(1)=1.8897261245650618d0,
  nat=55,
  ntyp=5,
  ecutwfc=29.39945797996531d00,
  ecutrho=293.9945797996531d00,
  nbnd=211,
  occupations='smearing',
  smearing='fd',
  degauss=0.007349864494991328d00,
  input_dft='BEEF-vdW',
  edir=3,
  emaxpos=0.0002802711915421696d00,
  eopreg=0.025d00,
  eamp=0.0d00,
  nosym=.false.,
  noinv=.false.,
  nosym_evc=.false.,
  no_t_rev=.false.,
/
&ELECTRONS
  diagonalization='david',
  conv_thr=7.349864494991327e-08,
  mixing_beta=0.05d00,
  electron_maxstep=1000,
  startingpot='file',
  startingwfc='atomic',
/
&IONS
  ion_dynamics='ipi',
/
&CELL
  cell_dynamics='ipi',
/
CELL_PARAMETERS alat
    6.579727202290808d0     0.000000000000000d0     0.000000000000000d0
   -0.000775132442404d0     5.961596420607155d0     0.000000000000000d0
    0.000000000000000d0    -0.000000000000000d0    25.155947251439940d0
ATOMIC_SPECIES
Ti1 47.867d00 Ti.UPF
O1 15.999d00 O.UPF
N1 14.007d00 N.UPF
C1 12.011d00 C.UPF
H1 1.008d00 H.UPF
ATOMIC_POSITIONS {crystal}
Ti1      0.000123603383822d0     0.499897385958536d0     0.238512187198856d0
Ti1      0.500142521004230d0     0.250038178055688d0     0.238522014307695d0
O1       0.000095322930372d0     0.000084774873452d0     0.317452257936818d0
O1       0.500112315057126d0     0.000084209992886d0     0.290342007718641d0
O1       0.698270105622955d0     0.250236102495782d0     0.369213011426276d0
O1       0.301995368073695d0     0.249987007385122d0     0.369214717028816d0
Ti1      0.500198167309398d0     0.485761668506182d0     0.364758343030283d0
Ti1      0.000261424674789d0     0.248709163236136d0     0.368424970923767d0
O1       0.501378532797764d0     0.003679052004129d0     0.449279927082188d0
O1       0.001882992193933d0     0.999479849154423d0     0.422099495650131d0
O1       0.198060895482770d0     0.251220603030943d0     0.501898049491479d0
O1       0.805938205395581d0     0.250788918454771d0     0.502095023721797d0
Ti1      0.004413670630572d0     0.479712532698141d0     0.503894186625963d0
Ti1      0.502395339463544d0     0.263459624977959d0     0.493358312916778d0
O1       0.001123732133923d0     0.996154790379531d0     0.582195027468784d0
O1       0.500692386473803d0     0.993311928651579d0     0.553310650537756d0
O1       0.695850510725090d0     0.255424506678298d0     0.638916090069398d0
O1       0.314047035893817d0     0.251746424525318d0     0.639753083364737d0
Ti1      0.501664599302592d0     0.496138519019521d0     0.622608167413272d0
Ti1      0.989656974277308d0     0.243765502134850d0     0.630069852805517d0
O1       0.500093721748991d0     0.000084921243389d0     0.186906639369252d0
O1       0.001654205291498d0     0.997779334373325d0     0.682556556164411d0
O1       0.198268504441574d0     0.250236248865719d0     0.238667392858710d0
O1       0.801993766892314d0     0.249987153755059d0     0.238669098461250d0
Ti1      0.000123603383822d0     0.999897385958536d0     0.238512187198856d0
Ti1      0.500142521004230d0     0.750038178055688d0     0.238522014307695d0
O1       0.000095322930372d0     0.500084774873452d0     0.317452257936818d0
O1       0.500112315057126d0     0.500084209992886d0     0.290342007718641d0
O1       0.698270105622955d0     0.750236102495782d0     0.369213011426276d0
O1       0.301995368073695d0     0.749987007385122d0     0.369214717028816d0
Ti1      0.500001644927041d0     0.985370751416071d0     0.364779031055315d0
Ti1      0.000183276761494d0     0.748948988039575d0     0.368476322807288d0
O1       0.501376647489487d0     0.495289153802950d0     0.447939860358508d0
O1       0.001460782485842d0     0.499964783615161d0     0.422656139091726d0
O1       0.195674223158504d0     0.750659224214579d0     0.502218321993445d0
O1       0.806094693335005d0     0.750666559806662d0     0.502319058125265d0
Ti1      0.998293801128291d0     0.978657302808434d0     0.499498504659023d0
Ti1      0.499531531353504d0     0.782345344694926d0     0.504160324294534d0
O1       0.004135673435702d0     0.491920465882115d0     0.584065639574289d0
O1       0.501196971239795d0     0.499954313477877d0     0.551879502165618d0
O1       0.693979456954381d0     0.737126010966658d0     0.640106209333652d0
O1       0.309966997444112d0     0.737903747223809d0     0.640010556184793d0
Ti1      0.489253846839512d0     0.994576565571805d0     0.649259063012587d0
Ti1      0.994049251310268d0     0.774276421345740d0     0.637326187369970d0
O1       0.500093721748991d0     0.500084921243389d0     0.186906639369252d0
O1       0.198268504441574d0     0.750236248865719d0     0.238667392858710d0
O1       0.801993766892315d0     0.749987153755059d0     0.238669098461250d0
N1       0.021075206161259d0     0.455734037120091d0     0.743384729444601d0
N1       0.006960023561457d0     0.484430463713939d0     0.696103409450948d0
C1       0.027551575136965d0     0.649758154655044d0     0.780844249191883d0
H1       0.987047282058533d0     0.807450071533546d0     0.761858731317511d0
H1       0.926339901431898d0     0.608597911871845d0     0.813653903013832d0
H1       0.181183369299564d0     0.656527218955259d0     0.796142357405060d0
O1       0.500245400056106d0     0.992333934045638d0     0.721905609569080d0
H1       0.476498204991785d0     0.124298056312275d0     0.743433139527874d0
K_POINTS automatic
4 4 1  0 0 0 
