&CONTROL
  calculation='relax',
  prefix='calc',
  pseudo_dir='/storage/coda1/p-amedford6/0/shared/rich_project_chbe-medford/medford-share/data/pseudos_module/espresso/nninc/pbe/van',
  outdir='.',
  tefield=.true.,
  dipfield=.true.,
  tprnfor=.true.,
  disk_io='none',
/
&SYSTEM
  ibrav=0,
  celldm(1)=1.8897261245650618d0,
  nat=55,
  ntyp=5,
  ecutwfc=29.39945797996531d00,
  ecutrho=293.9945797996531d00,
  nbnd=211,
  occupations='smearing',
  smearing='fd',
  degauss=0.007349864494991328d00,
  input_dft='BEEF-vdW',
  edir=3,
  emaxpos=0.9934035862844612d00,
  eopreg=0.025d00,
  eamp=0.0d00,
  nosym=.false.,
  noinv=.false.,
  nosym_evc=.false.,
  no_t_rev=.false.,
/
&ELECTRONS
  diagonalization='david',
  conv_thr=7.349864494991327e-08,
  mixing_beta=0.05d00,
  electron_maxstep=1000,
  startingwfc='atomic',
/
&IONS
  ion_dynamics='ipi',
/
&CELL
  cell_dynamics='ipi',
/
CELL_PARAMETERS alat
    6.579727202290808d0     0.000000000000000d0     0.000000000000000d0
   -0.000775132442404d0     5.961596420607155d0     0.000000000000000d0
    0.000000000000000d0    -0.000000000000000d0    25.155947251439940d0
ATOMIC_SPECIES
Ti1 47.867d00 Ti.UPF
O1 15.999d00 O.UPF
C1 12.011d00 C.UPF
H1 1.008d00 H.UPF
N1 14.007d00 N.UPF
ATOMIC_POSITIONS {crystal}
Ti1      0.000123603383822d0     0.499897385958537d0     0.238512187198856d0
Ti1      0.500142521004230d0     0.250038178055688d0     0.238522014307695d0
O1       0.000095322930372d0     0.000084774873452d0     0.317452257936818d0
O1       0.500112315057126d0     0.000084209992886d0     0.290342007718641d0
O1       0.698270105622955d0     0.250236102495782d0     0.369213011426276d0
O1       0.301995368073695d0     0.249987007385122d0     0.369214717028816d0
Ti1      0.506586444600883d0     0.500389606857750d0     0.364169710978874d0
Ti1      0.007629084213707d0     0.250931056034989d0     0.367893136952771d0
O1       0.500373035319255d0     0.998571254990958d0     0.451328541354779d0
O1       0.002266657423772d0     0.999407845179611d0     0.420672690806411d0
O1       0.196010606043732d0     0.247171007780300d0     0.502810599164589d0
O1       0.804837507282701d0     0.246971398781233d0     0.501401860835819d0
Ti1      0.001863993346903d0     0.497242342272937d0     0.496602276080364d0
Ti1      0.501138775729918d0     0.248812015472024d0     0.496703763460048d0
O1       0.995128262559081d0     0.989502437160585d0     0.580284909815508d0
O1       0.502133336509109d0     0.993884395520411d0     0.555356064401096d0
O1       0.687924602424204d0     0.244426938671782d0     0.639979743806809d0
O1       0.301531908738332d0     0.247198281891779d0     0.639648466997913d0
Ti1      0.495843048782628d0     0.493003651690827d0     0.625206629205903d0
Ti1      0.997473291625782d0     0.221802988843215d0     0.628830832099045d0
O1       0.500093721748991d0     0.000084921243389d0     0.186906639369252d0
O1       0.994283265116549d0     0.999485682982265d0     0.680477423856603d0
O1       0.198268504441574d0     0.250236248865719d0     0.238667392858710d0
O1       0.801993766892314d0     0.249987153755059d0     0.238669098461250d0
Ti1      0.000123603383822d0     0.999897385958537d0     0.238512187198856d0
Ti1      0.500142521004230d0     0.750038178055688d0     0.238522014307695d0
O1       0.000095322930372d0     0.500084774873452d0     0.317452257936818d0
O1       0.500112315057126d0     0.500084209992886d0     0.290342007718641d0
O1       0.698270105622955d0     0.750236102495782d0     0.369213011426276d0
O1       0.301995368073695d0     0.749987007385122d0     0.369214717028816d0
Ti1      0.505491229550311d0     0.000236090435510d0     0.363935025438708d0
Ti1      0.007740575128246d0     0.748896854817370d0     0.367942761756333d0
O1       0.500832407767398d0     0.496849180997839d0     0.451135624011835d0
O1       0.002541929668175d0     0.498546735632077d0     0.421615772706716d0
O1       0.196186899694382d0     0.746040881412921d0     0.501680873601688d0
O1       0.804948602445881d0     0.746117898004089d0     0.501054654049362d0
Ti1      0.999439169710418d0     0.997069260934747d0     0.494545658536897d0
Ti1      0.501478576031635d0     0.748120908890820d0     0.496821589506951d0
O1       0.988828044998712d0     0.497888175801046d0     0.591103571503915d0
O1       0.500370270102270d0     0.497093332671714d0     0.553913000140885d0
O1       0.682560857211676d0     0.738246345933547d0     0.642707462132304d0
O1       0.296794005050608d0     0.740358266187252d0     0.639526488601219d0
Ti1      0.498122477168971d0     0.994200009988692d0     0.626791588093508d0
Ti1      0.995484849173077d0     0.767514629999706d0     0.630935537270680d0
O1       0.500093721748991d0     0.500084921243389d0     0.186906639369252d0
O1       0.198268504441574d0     0.750236248865719d0     0.238667392858710d0
O1       0.801993766892315d0     0.749987153755059d0     0.238669098461250d0
C1       0.976503217869052d0     0.591610359555032d0     0.773326713810629d0
O1       0.153038489146050d0     0.729793434517791d0     0.775379136503537d0
H1       0.001667832051710d0     0.449811249827546d0     0.799900533199670d0
H1       0.131415650342957d0     0.853992456486291d0     0.751188842673449d0
H1       0.839042447424375d0     0.682227598649957d0     0.785253033812960d0
H1       0.950213482414364d0     0.522456884291099d0     0.733088903561363d0
N1       0.503882657323010d0     0.153582473999733d0     0.782245262959086d0
N1       0.397312772744048d0     0.271686221303920d0     0.762908042879212d0
K_POINTS automatic
4 4 1  0 0 0 
