&CONTROL
  calculation='relax',
  prefix='calc',
  pseudo_dir='/storage/coda1/p-amedford6/0/shared/rich_project_chbe-medford/medford-share/data/pseudos_module/espresso/nninc/pbe/van',
  outdir='.',
  tefield=.true.,
  dipfield=.true.,
  tprnfor=.true.,
  disk_io='none',
/
&SYSTEM
  ibrav=0,
  celldm(1)=1.8897261245650618d0,
  nat=55,
  ntyp=5,
  ecutwfc=29.39945797996531d00,
  ecutrho=293.9945797996531d00,
  nbnd=211,
  occupations='smearing',
  smearing='fd',
  degauss=0.007349864494991328d00,
  input_dft='BEEF-vdW',
  edir=3,
  emaxpos=0.0021218077903251142d00,
  eopreg=0.025d00,
  eamp=0.0d00,
  nosym=.false.,
  noinv=.false.,
  nosym_evc=.false.,
  no_t_rev=.false.,
/
&ELECTRONS
  diagonalization='david',
  conv_thr=7.349864494991327e-08,
  mixing_beta=0.05d00,
  electron_maxstep=1000,
  startingwfc='atomic',
/
&IONS
  ion_dynamics='ipi',
/
&CELL
  cell_dynamics='ipi',
/
CELL_PARAMETERS alat
    6.579727202290808d0     0.000000000000000d0     0.000000000000000d0
   -0.000775132442404d0     5.961596420607155d0     0.000000000000000d0
    0.000000000000000d0    -0.000000000000000d0    25.155947251439940d0
ATOMIC_SPECIES
Ti1 47.867d00 Ti.UPF
O1 15.999d00 O.UPF
C1 12.011d00 C.UPF
H1 1.008d00 H.UPF
N1 14.007d00 N.UPF
ATOMIC_POSITIONS {crystal}
Ti1      0.000123603383822d0     0.499897385958537d0     0.238512187198856d0
Ti1      0.500142521004230d0     0.250038178055688d0     0.238522014307695d0
O1       0.000095322930372d0     0.000084774873452d0     0.317452257936818d0
O1       0.500112315057126d0     0.000084209992886d0     0.290342007718641d0
O1       0.698270105622955d0     0.250236102495782d0     0.369213011426276d0
O1       0.301995368073695d0     0.249987007385122d0     0.369214717028816d0
Ti1      0.508073137273996d0     0.497759206377214d0     0.363992706103657d0
Ti1      0.007765791542969d0     0.251207504637601d0     0.368571575123960d0
O1       0.495502076034289d0     0.000480224237461d0     0.451528136174026d0
O1       0.998916798093719d0     0.000079821282312d0     0.421072909192620d0
O1       0.192578105623770d0     0.249902847291987d0     0.502750369687841d0
O1       0.799418870303933d0     0.251037318085229d0     0.501854257495469d0
Ti1      0.992685291305072d0     0.498628927049828d0     0.499248802173231d0
Ti1      0.491397945339470d0     0.250996460254491d0     0.496816935996276d0
O1       0.992479189937248d0     0.001351024205312d0     0.581657922548393d0
O1       0.499674111883071d0     0.001362908440039d0     0.555864002906208d0
O1       0.680830849090162d0     0.257287317384454d0     0.642907618593590d0
O1       0.298219747312922d0     0.253818380002123d0     0.641446020230908d0
Ti1      0.487563905839642d0     0.502111756491769d0     0.624434018512377d0
Ti1      0.000419960265985d0     0.233312330069854d0     0.631160227487047d0
O1       0.500093721748991d0     0.000084921243389d0     0.186906639369252d0
O1       0.990824157705339d0     0.000987443312885d0     0.682074580261848d0
O1       0.198268504441574d0     0.250236248865719d0     0.238667392858710d0
O1       0.801993766892314d0     0.249987153755059d0     0.238669098461250d0
Ti1      0.000123603383822d0     0.999897385958537d0     0.238512187198856d0
Ti1      0.500142521004230d0     0.750038178055688d0     0.238522014307695d0
O1       0.000095322930372d0     0.500084774873452d0     0.317452257936818d0
O1       0.500112315057126d0     0.500084209992886d0     0.290342007718641d0
O1       0.698270105622955d0     0.750236102495782d0     0.369213011426276d0
O1       0.301995368073695d0     0.749987007385122d0     0.369214717028816d0
Ti1      0.504037059345865d0     0.997772196953131d0     0.364180614913009d0
Ti1      0.007602272589344d0     0.747582791398264d0     0.368700891541350d0
O1       0.495775029604362d0     0.500548147786517d0     0.451170955202161d0
O1       0.999703496622666d0     0.500201628845337d0     0.422021309895220d0
O1       0.192556076294584d0     0.751154395171444d0     0.502787396499443d0
O1       0.799452113286285d0     0.749708984474606d0     0.501923854882061d0
Ti1      0.993073817995698d0     0.998664068477519d0     0.495768571041180d0
Ti1      0.491380885124416d0     0.749797589755663d0     0.496722803311895d0
O1       0.990306297383193d0     0.500579644801245d0     0.588177359340972d0
O1       0.493605332603034d0     0.500878558020650d0     0.553586176183626d0
O1       0.681149542565284d0     0.746114850999920d0     0.642629140727303d0
O1       0.298350898867840d0     0.749411480448371d0     0.641270351142105d0
Ti1      0.500765118146007d0     0.001675191789163d0     0.627173433406700d0
Ti1      0.999206061075729d0     0.772849140547088d0     0.632005041989478d0
O1       0.500093721748991d0     0.500084921243389d0     0.186906639369252d0
O1       0.198268504441574d0     0.750236248865719d0     0.238667392858710d0
O1       0.801993766892315d0     0.749987153755059d0     0.238669098461250d0
C1       0.027786677844319d0     0.494658365379790d0     0.751180983290850d0
O1       0.958565085642312d0     0.499635552489091d0     0.696861671178861d0
H1       0.192104393944321d0     0.490041604468787d0     0.749845872816125d0
H1       0.810260470511702d0     0.498028425933677d0     0.695560091050512d0
H1       0.976380432247135d0     0.645359100436444d0     0.771217405705748d0
H1       0.969901203930342d0     0.344436399391620d0     0.770202022939539d0
N1       0.571362594419814d0     0.495095055455896d0     0.817336976211398d0
N1       0.534844900941178d0     0.501401011441448d0     0.774619053087763d0
K_POINTS automatic
4 4 1  0 0 0 
