&CONTROL
  calculation='relax',
  prefix='calc',
  pseudo_dir='/storage/coda1/p-amedford6/0/shared/rich_project_chbe-medford/medford-share/data/pseudos_module/espresso/nninc/pbe/van',
  outdir='.',
  tefield=.true.,
  dipfield=.true.,
  tprnfor=.true.,
  disk_io='none',
/
&SYSTEM
  ibrav=0,
  celldm(1)=1.8897261245650618d0,
  nat=57,
  ntyp=4,
  ecutwfc=29.39945797996531d00,
  ecutrho=293.9945797996531d00,
  nbnd=227,
  occupations='smearing',
  smearing='fd',
  degauss=0.007349864494991328d00,
  input_dft='BEEF-vdW',
  edir=3,
  emaxpos=0.02277476180129856d00,
  eopreg=0.025d00,
  eamp=0.0d00,
  nosym=.false.,
  noinv=.false.,
  nosym_evc=.false.,
  no_t_rev=.false.,
/
&ELECTRONS
  diagonalization='david',
  conv_thr=7.349864494991327e-08,
  mixing_beta=0.05d00,
  electron_maxstep=1000,
  startingpot='file',
  startingwfc='atomic',
/
&IONS
  ion_dynamics='ipi',
/
&CELL
  cell_dynamics='ipi',
/
CELL_PARAMETERS alat
    6.579727202290808d0     0.000000000000000d0     0.000000000000000d0
   -0.001162698663605d0     8.942394630910734d0     0.000000000000000d0
    0.000000000000000d0    -0.000000000000000d0    25.155947251439940d0
ATOMIC_SPECIES
O1 15.999d00 O.UPF
Ti1 47.867d00 Ti.UPF
N1 14.007d00 N.UPF
H1 1.008d00 H.UPF
ATOMIC_POSITIONS {crystal}
O1       0.000111781329999d0     0.000056172521910d0     0.421099706309416d0
O1       0.500086746382700d0     0.998241169446128d0     0.552859774440213d0
O1       0.000058043162213d0     0.007096620619879d0     0.684100601809343d0
O1       0.000095322930372d0     0.000056516582301d0     0.317452257936818d0
O1       0.500114215976502d0     0.997902142019181d0     0.444914273157372d0
O1       0.000116253418658d0     0.004742911220125d0     0.580038274904617d0
O1       0.301995368073695d0     0.166658004923414d0     0.369214717028816d0
O1       0.795432793296785d0     0.180041884326072d0     0.500186053740323d0
O1       0.305823595097650d0     0.176582883098093d0     0.638956594733536d0
Ti1      0.000141987277103d0     0.166692151230444d0     0.369279712898471d0
Ti1      0.500108330284229d0     0.151136518108179d0     0.497095531886258d0
Ti1      0.000149347503415d0     0.145537463631777d0     0.628566426115188d0
O1       0.698270105622955d0     0.166824068330521d0     0.369213011426276d0
O1       0.204744336593894d0     0.180044830151116d0     0.500186922830704d0
O1       0.694308703117891d0     0.176534407560649d0     0.638955481177602d0
Ti1      0.500123069656695d0     0.333264956499010d0     0.369269885789632d0
Ti1      0.000122986304499d0     0.316054086070588d0     0.495828654245203d0
Ti1      0.500157181375758d0     0.328643467450890d0     0.624735538041523d0
O1       0.000111781329999d0     0.333389505855244d0     0.421099706309416d0
O1       0.500110040434092d0     0.332079764017824d0     0.552738815073830d0
O1       0.000095322930372d0     0.333389849915635d0     0.317452257936818d0
O1       0.500120613075513d0     0.331469812363898d0     0.444882101999332d0
O1       0.000046203500523d0     0.338779197351160d0     0.585190511483120d0
O1       0.301995368073695d0     0.499991338256748d0     0.369214717028816d0
O1       0.795825538529507d0     0.512822490459861d0     0.500168140157830d0
O1       0.308156353796884d0     0.501361760010760d0     0.640040208717212d0
Ti1      0.000141987277103d0     0.500025484563778d0     0.369279712898471d0
Ti1      0.500175037448858d0     0.483595745992529d0     0.497330672076129d0
Ti1      0.000148703643985d0     0.513831441424336d0     0.625222607553829d0
O1       0.698270105622955d0     0.500157401663855d0     0.369213011426276d0
O1       0.204441820045267d0     0.512807387361753d0     0.500162296786676d0
O1       0.691945084880183d0     0.501370502619246d0     0.640033672228250d0
Ti1      0.500123069656695d0     0.666598289832344d0     0.369269885789632d0
Ti1      0.000221854146488d0     0.649735986509995d0     0.495057792457405d0
Ti1      0.500075893228390d0     0.662390877864623d0     0.625037020462892d0
O1       0.000111781329999d0     0.666722839188577d0     0.421099706309416d0
O1       0.500098942129784d0     0.665373670051843d0     0.553273398210160d0
O1       0.000042952084054d0     0.662030035354290d0     0.685002908503668d0
O1       0.000095322930372d0     0.666723183248968d0     0.317452257936818d0
O1       0.500137371732336d0     0.664414817400359d0     0.444875316891750d0
O1       0.000119285244874d0     0.670795220667241d0     0.581981410286225d0
O1       0.301995368073695d0     0.833324671590081d0     0.369214717028816d0
O1       0.795828129894978d0     0.844843893613606d0     0.499637954832266d0
O1       0.308897232383910d0     0.838160000190864d0     0.638194251005800d0
Ti1      0.000141987277103d0     0.833358817897111d0     0.369279712898471d0
Ti1      0.500179194028260d0     0.816951418872139d0     0.497072609599012d0
Ti1      0.000083767265176d0     0.827636651321785d0     0.647243769920992d0
O1       0.698270105622955d0     0.833490734997188d0     0.369213011426276d0
O1       0.204389602725323d0     0.844817465368475d0     0.499633024772317d0
O1       0.691262450609680d0     0.838156554731516d0     0.638180732454274d0
Ti1      0.500123069656695d0     0.999931623165677d0     0.369269885789632d0
Ti1      0.000181392715621d0     0.981160478410394d0     0.495866881128718d0
Ti1      0.500114374155430d0     0.992707447913612d0     0.624451240749826d0
N1       0.999991434777211d0     0.333823422707734d0     0.712572926353238d0
H1       0.999953576655083d0     0.229060437980448d0     0.728097265665778d0
H1       0.876054774625582d0     0.388082164277317d0     0.726913512034825d0
H1       0.123897902272602d0     0.388092711436751d0     0.726936392001721d0
K_POINTS automatic
4 4 1  0 0 0 
