&CONTROL
  calculation='relax',
  prefix='calc',
  pseudo_dir='/storage/coda1/p-amedford6/0/shared/rich_project_chbe-medford/medford-share/data/pseudos_module/espresso/nninc/pbe/van',
  outdir='.',
  tefield=.true.,
  dipfield=.true.,
  tprnfor=.true.,
  disk_io='none',
/
&SYSTEM
  ibrav=0,
  celldm(1)=1.8897261245650618d0,
  nat=53,
  ntyp=5,
  ecutwfc=36.749322474956635d00,
  ecutrho=367.49322474956637d00,
  nbnd=207,
  occupations='smearing',
  smearing='fd',
  degauss=0.007349864494991328d00,
  input_dft='BEEF-vdW',
  edir=3,
  emaxpos=0.9858405163537083d00,
  eopreg=0.025d00,
  eamp=0.0d00,
  nosym=.false.,
  noinv=.false.,
  nosym_evc=.false.,
  no_t_rev=.false.,
/
&ELECTRONS
  diagonalization='david',
  conv_thr=7.349864494991327e-08,
  mixing_beta=0.05d00,
  electron_maxstep=1000,
  startingwfc='atomic',
/
&IONS
  ion_dynamics='ipi',
/
&CELL
  cell_dynamics='ipi',
/
CELL_PARAMETERS alat
    6.579727202290808d0     0.000000000000000d0     0.000000000000000d0
   -0.000775132442404d0     5.961596420607155d0     0.000000000000000d0
    0.000000000000000d0    -0.000000000000000d0    25.155947251439940d0
ATOMIC_SPECIES
Ti1 47.867d00 Ti.UPF
O1 15.999d00 O.UPF
N1 14.007d00 N.UPF
C1 12.011d00 C.UPF
H1 1.008d00 H.UPF
ATOMIC_POSITIONS {crystal}
Ti1      0.000123603383822d0     0.499897385958536d0     0.238512187198856d0
Ti1      0.500142521004230d0     0.250038178055688d0     0.238522014307695d0
O1       0.000095322930372d0     0.000084774873452d0     0.317452257936818d0
O1       0.500112315057126d0     0.000084209992886d0     0.290342007718641d0
O1       0.698270105622955d0     0.250236102495782d0     0.369213011426276d0
O1       0.301995368073695d0     0.249987007385122d0     0.369214717028816d0
Ti1      0.500198167309398d0     0.485761668506182d0     0.364758343030283d0
Ti1      0.000261424674789d0     0.248709163236136d0     0.368424970923767d0
O1       0.511179168395568d0     0.999150274318647d0     0.452013401110109d0
O1       0.001882992193933d0     0.999479849154423d0     0.422099495650131d0
O1       0.210445324270907d0     0.250813977491568d0     0.503078284717996d0
O1       0.819122904459314d0     0.249396550560275d0     0.504720357997333d0
Ti1      0.011875465377759d0     0.499098630071982d0     0.497479591221499d0
Ti1      0.512613209399820d0     0.248803011919028d0     0.498106667767873d0
O1       0.028127567480524d0     0.000626258948261d0     0.585743275062001d0
O1       0.520052859583324d0     0.999608255603361d0     0.556544900357647d0
O1       0.721917739181993d0     0.253145865289984d0     0.644474078081033d0
O1       0.339092372281261d0     0.249926055766181d0     0.642876141468932d0
Ti1      0.531085462742846d0     0.499503620653253d0     0.626410076626912d0
Ti1      0.033799861808920d0     0.231196605332138d0     0.635560830233490d0
O1       0.500093721748991d0     0.000084921243389d0     0.186906639369252d0
O1       0.029601390999847d0     0.999750356404005d0     0.687235115412239d0
O1       0.198268504441574d0     0.250236248865719d0     0.238667392858710d0
O1       0.801993766892314d0     0.249987153755059d0     0.238669098461250d0
Ti1      0.000123603383822d0     0.999897385958536d0     0.238512187198856d0
Ti1      0.500142521004230d0     0.750038178055688d0     0.238522014307695d0
O1       0.000095322930372d0     0.500084774873452d0     0.317452257936818d0
O1       0.500112315057126d0     0.500084209992886d0     0.290342007718641d0
O1       0.698270105622955d0     0.750236102495782d0     0.369213011426276d0
O1       0.301995368073695d0     0.749987007385122d0     0.369214717028816d0
Ti1      0.500001644927041d0     0.985370751416071d0     0.364779031055315d0
Ti1      0.000183276761494d0     0.748948988039575d0     0.368476322807288d0
O1       0.512960435340166d0     0.499331067636475d0     0.451887761115288d0
O1       0.001460782485842d0     0.499964783615161d0     0.422656139091726d0
O1       0.210479242256226d0     0.748353892698396d0     0.503171116025754d0
O1       0.819087535396105d0     0.749697302037430d0     0.504783987689448d0
Ti1      0.012229695748472d0     0.999070479320115d0     0.497022613940338d0
Ti1      0.512552882886524d0     0.749106138351676d0     0.498103244534155d0
O1       0.025704241985509d0     0.499965997126462d0     0.595858686562975d0
O1       0.518978020187318d0     0.499307334705763d0     0.555304138057466d0
O1       0.721680274716692d0     0.746460188817172d0     0.644362684047788d0
O1       0.339104075398879d0     0.749724619618085d0     0.642743581746742d0
Ti1      0.531646589487524d0     0.999773207178177d0     0.628238823066181d0
Ti1      0.033538082920137d0     0.771027018953916d0     0.635916601257724d0
O1       0.500093721748991d0     0.500084921243389d0     0.186906639369252d0
O1       0.198268504441574d0     0.750236248865719d0     0.238667392858710d0
O1       0.801993766892315d0     0.749987153755059d0     0.238669098461250d0
N1       0.099449584989815d0     0.495770835642124d0     0.728029792206188d0
C1       0.299685682196052d0     0.504033390639919d0     0.755916044611414d0
H1       0.304037743982751d0     0.642811301274370d0     0.782407254082230d0
H1       0.310087299927421d0     0.373051349179569d0     0.784774393338164d0
H1       0.428737719370043d0     0.503394139209551d0     0.729364306405397d0
N1       0.927712981744838d0     0.495770835642124d0     0.728029792206188d0
K_POINTS automatic
6 6 1  0 0 0 
