&CONTROL
  calculation='relax',
  prefix='calc',
  pseudo_dir='/storage/coda1/p-amedford6/0/shared/rich_project_chbe-medford/medford-share/data/pseudos_module/espresso/nninc/pbe/van',
  outdir='.',
  tefield=.true.,
  dipfield=.true.,
  tprnfor=.true.,
  disk_io='none',
/
&SYSTEM
  ibrav=0,
  celldm(1)=1.8897261245650618d0,
  nat=51,
  ntyp=4,
  ecutwfc=29.39945797996531d00,
  ecutrho=293.9945797996531d00,
  nbnd=205,
  occupations='smearing',
  smearing='fd',
  degauss=0.007349864494991328d00,
  input_dft='BEEF-vdW',
  edir=3,
  emaxpos=0.9765432248622643d00,
  eopreg=0.025d00,
  eamp=0.0d00,
  nosym=.false.,
  noinv=.false.,
  nosym_evc=.false.,
  no_t_rev=.false.,
/
&ELECTRONS
  diagonalization='david',
  conv_thr=7.349864494991327e-08,
  mixing_beta=0.05d00,
  electron_maxstep=1000,
  startingpot='file',
  startingwfc='atomic',
/
&IONS
  ion_dynamics='ipi',
/
&CELL
  cell_dynamics='ipi',
/
CELL_PARAMETERS alat
    6.579727202290808d0     0.000000000000000d0     0.000000000000000d0
   -0.000775132442404d0     5.961596420607155d0     0.000000000000000d0
    0.000000000000000d0    -0.000000000000000d0    25.155947251439940d0
ATOMIC_SPECIES
O1 15.999d00 O.UPF
Ti1 47.867d00 Ti.UPF
C1 12.011d00 C.UPF
H1 1.008d00 H.UPF
ATOMIC_POSITIONS {crystal}
O1       0.500093721748991d0     0.000084921243389d0     0.186906639369252d0
O1       0.500093721748991d0     0.500084921243389d0     0.186906639369252d0
Ti1      0.000123603383822d0     0.499897385958537d0     0.238512187198856d0
Ti1      0.000123603383822d0     0.999897385958537d0     0.238512187198856d0
Ti1      0.500142521004230d0     0.250038178055688d0     0.238522014307695d0
Ti1      0.500142521004230d0     0.750038178055688d0     0.238522014307695d0
O1       0.198268504441574d0     0.250236248865719d0     0.238667392858710d0
O1       0.198268504441574d0     0.750236248865719d0     0.238667392858710d0
O1       0.801993766892314d0     0.249987153755059d0     0.238669098461250d0
O1       0.801993766892315d0     0.749987153755059d0     0.238669098461250d0
O1       0.500112315057126d0     0.000084209992886d0     0.290342007718641d0
O1       0.500112315057126d0     0.500084209992886d0     0.290342007718641d0
O1       0.000095322930372d0     0.000084774873452d0     0.317452257936818d0
O1       0.000095322930372d0     0.500084774873452d0     0.317452257936818d0
Ti1      0.501941433999414d0     0.009372377163129d0     0.363849763909351d0
Ti1      0.504093667344484d0     0.508716329903702d0     0.364017933458983d0
Ti1      0.004317397194696d0     0.760865564083082d0     0.367911236908943d0
Ti1      0.003758899841744d0     0.270708696888401d0     0.372179484106837d0
O1       0.698270105622955d0     0.250236102495782d0     0.369213011426276d0
O1       0.698270105622955d0     0.750236102495782d0     0.369213011426276d0
O1       0.301995368073695d0     0.249987007385122d0     0.369214717028816d0
O1       0.301995368073695d0     0.749987007385122d0     0.369214717028816d0
O1       0.001255025832215d0     0.001777422082844d0     0.421502317035745d0
O1       0.001267106133430d0     0.501545865653682d0     0.420740874073901d0
O1       0.502181031212162d0     0.502031990776567d0     0.451079867256277d0
O1       0.502046973001099d0     0.001726987356026d0     0.451164161354973d0
Ti1      0.004824744687793d0     0.002908538180278d0     0.496931523908815d0
Ti1      0.506289390805280d0     0.752611547847821d0     0.496539072100135d0
Ti1      0.506248804216000d0     0.253263200402695d0     0.496438039051187d0
Ti1      0.005081911104277d0     0.502831079862008d0     0.508266916398377d0
O1       0.197854173343009d0     0.751780664640329d0     0.502500593673637d0
O1       0.197975442804133d0     0.251860317349921d0     0.502445418495237d0
O1       0.805800330404256d0     0.751690453075833d0     0.502634683883532d0
O1       0.805673116330698d0     0.251816786248792d0     0.502550345527538d0
O1       0.501947442651253d0     0.501314677495362d0     0.553554280820944d0
O1       0.502483614558238d0     0.001594464210043d0     0.554472132620564d0
O1       0.003962508347231d0     0.002976941235194d0     0.583824085951062d0
O1       0.004211389055674d0     0.502432530636315d0     0.585432039414065d0
Ti1      0.503426317529568d0     0.501594742891882d0     0.624789032739461d0
Ti1      0.505050555650827d0     0.001788982287318d0     0.625663946763759d0
Ti1      0.005081155097059d0     0.768659515613933d0     0.634201602442714d0
Ti1      0.004993511491315d0     0.232998260177753d0     0.636109993575217d0
O1       0.693469583512036d0     0.749988249401347d0     0.639676950802939d0
O1       0.693253060038504d0     0.253719209933244d0     0.640045432261805d0
O1       0.313051192030094d0     0.254184355835646d0     0.640419635913049d0
O1       0.312827422855726d0     0.749581656193723d0     0.640033464116749d0
O1       0.002549680925583d0     0.000680072567528d0     0.684034367754245d0
O1       0.998275219548487d0     0.504063594330684d0     0.693116970190978d0
C1       0.970323646850972d0     0.515774911627914d0     0.742890146734023d0
H1       0.957717361292354d0     0.680009140811582d0     0.761701831053613d0
H1       0.958361433582147d0     0.361917720150520d0     0.766179810355276d0
K_POINTS automatic
4 4 1  0 0 0 
