&CONTROL
  calculation='relax',
  prefix='calc',
  pseudo_dir='/storage/coda1/p-amedford6/0/shared/rich_project_chbe-medford/medford-share/data/pseudos_module/espresso/nninc/pbe/van',
  outdir='.',
  tefield=.true.,
  dipfield=.true.,
  tprnfor=.true.,
  disk_io='none',
/
&SYSTEM
  ibrav=0,
  celldm(1)=1.8897261245650618d0,
  nat=52,
  ntyp=4,
  ecutwfc=29.39945797996531d00,
  ecutrho=293.9945797996531d00,
  nbnd=205,
  occupations='smearing',
  smearing='fd',
  degauss=0.007349864494991328d00,
  input_dft='BEEF-vdW',
  edir=3,
  emaxpos=0.9615920670648896d00,
  eopreg=0.025d00,
  eamp=0.0d00,
  nosym=.false.,
  noinv=.false.,
  nosym_evc=.false.,
  no_t_rev=.false.,
/
&ELECTRONS
  diagonalization='david',
  conv_thr=7.349864494991327e-08,
  mixing_beta=0.05d00,
  electron_maxstep=1000,
  startingpot='file',
  startingwfc='atomic',
/
&IONS
  ion_dynamics='ipi',
/
&CELL
  cell_dynamics='ipi',
/
CELL_PARAMETERS alat
    6.579727202290808d0     0.000000000000000d0     0.000000000000000d0
   -0.000775132442404d0     5.961596420607155d0     0.000000000000000d0
    0.000000000000000d0    -0.000000000000000d0    25.155947251439940d0
ATOMIC_SPECIES
Ti1 47.867d00 Ti.UPF
O1 15.999d00 O.UPF
C1 12.011d00 C.UPF
H1 1.008d00 H.UPF
ATOMIC_POSITIONS {crystal}
Ti1      0.000123603383822d0     0.499897385958537d0     0.238512187198856d0
Ti1      0.500142521004230d0     0.250038178055688d0     0.238522014307695d0
O1       0.000095322930372d0     0.000084774873452d0     0.317452257936818d0
O1       0.500112315057126d0     0.000084209992886d0     0.290342007718641d0
O1       0.698270105622955d0     0.250236102495782d0     0.369213011426276d0
O1       0.301995368073695d0     0.249987007385122d0     0.369214717028816d0
Ti1      0.497332966875789d0     0.509050467332235d0     0.364224839327832d0
Ti1      0.995206305313370d0     0.259751137583278d0     0.370148182414893d0
O1       0.503641184907394d0     0.999541840584652d0     0.450480134000831d0
O1       0.999854073102367d0     0.999696353916970d0     0.420792426644693d0
O1       0.194996893371920d0     0.251307623032399d0     0.500634265610810d0
O1       0.806699049425819d0     0.245179421053346d0     0.503200771803550d0
Ti1      0.009977226728778d0     0.498825940635310d0     0.504446334834911d0
Ti1      0.507514718560458d0     0.271589383348353d0     0.501289186606048d0
O1       0.024121963825736d0     0.994615222902178d0     0.582062921695651d0
O1       0.481606665540160d0     0.996414217323273d0     0.552442025531110d0
O1       0.701268131066651d0     0.224220844605873d0     0.629807464996904d0
O1       0.315869176928565d0     0.251514002315608d0     0.644790819835536d0
Ti1      0.509210283886215d0     0.493419123120102d0     0.634619290235233d0
Ti1      0.000073808847220d0     0.222028817095698d0     0.632603726180563d0
O1       0.500093721748991d0     0.000084921243389d0     0.186906639369252d0
O1       0.999328138424542d0     0.992534056994554d0     0.681725528025250d0
O1       0.198268504441574d0     0.250236248865719d0     0.238667392858710d0
O1       0.801993766892314d0     0.249987153755059d0     0.238669098461250d0
Ti1      0.000123603383822d0     0.999897385958537d0     0.238512187198856d0
Ti1      0.500142521004230d0     0.750038178055688d0     0.238522014307695d0
O1       0.000095322930372d0     0.500084774873452d0     0.317452257936818d0
O1       0.500112315057126d0     0.500084209992886d0     0.290342007718641d0
O1       0.698270105622955d0     0.750236102495782d0     0.369213011426276d0
O1       0.301995368073695d0     0.749987007385122d0     0.369214717028816d0
Ti1      0.495789547068481d0     0.009862736016685d0     0.364804451100051d0
Ti1      0.995274753162714d0     0.750376375963548d0     0.368403136669787d0
O1       0.503438596987484d0     0.501248115918402d0     0.450800533116128d0
O1       0.998225896286130d0     0.499170781929351d0     0.420837071303697d0
O1       0.195101593544950d0     0.745681773769331d0     0.500580899508962d0
O1       0.806189970968401d0     0.751952049142936d0     0.503138435109405d0
Ti1      0.002233950100801d0     0.998947121416418d0     0.495013180195431d0
Ti1      0.507657602840892d0     0.760070081793236d0     0.494797565691328d0
O1       0.013915298729959d0     0.494708539666703d0     0.586134796785841d0
O1       0.503849255834250d0     0.490239397979965d0     0.554391716951720d0
O1       0.700916006677904d0     0.762245195504154d0     0.629000213943833d0
O1       0.316257705653550d0     0.735820952586835d0     0.644313609208330d0
Ti1      0.497656195910231d0     0.993194343890700d0     0.623048389099708d0
Ti1      0.999057292324992d0     0.762280049353243d0     0.631117317120465d0
O1       0.500093721748991d0     0.500084921243389d0     0.186906639369252d0
O1       0.198268504441574d0     0.750236248865719d0     0.238667392858710d0
O1       0.801993766892315d0     0.749987153755059d0     0.238669098461250d0
C1       0.686882940992581d0     0.495196051068648d0     0.711740261467977d0
O1       0.910919695626806d0     0.494388589923925d0     0.695304433299066d0
H1       0.995425549170810d0     0.499965210371857d0     0.726950740292378d0
H1       0.668069195474191d0     0.345373277706710d0     0.736277494760527d0
H1       0.668122238788864d0     0.646856842103943d0     0.736018838794074d0
K_POINTS automatic
4 4 1  0 0 0 
