&CONTROL
  calculation='relax',
  prefix='calc',
  pseudo_dir='/storage/coda1/p-amedford6/0/shared/rich_project_chbe-medford/medford-share/data/pseudos_module/espresso/nninc/pbe/van',
  outdir='.',
  tefield=.true.,
  dipfield=.true.,
  tprnfor=.true.,
  disk_io='none',
/
&SYSTEM
  ibrav=0,
  celldm(1)=1.8897261245650618d0,
  nat=55,
  ntyp=5,
  ecutwfc=29.39945797996531d00,
  ecutrho=293.9945797996531d00,
  nbnd=211,
  occupations='smearing',
  smearing='fd',
  degauss=0.007349864494991328d00,
  input_dft='BEEF-vdW',
  edir=3,
  emaxpos=0.9922595595548215d00,
  eopreg=0.025d00,
  eamp=0.0d00,
  nosym=.false.,
  noinv=.false.,
  nosym_evc=.false.,
  no_t_rev=.false.,
/
&ELECTRONS
  diagonalization='david',
  conv_thr=7.349864494991327e-08,
  mixing_beta=0.05d00,
  electron_maxstep=1000,
  startingwfc='atomic',
/
&IONS
  ion_dynamics='ipi',
/
&CELL
  cell_dynamics='ipi',
/
CELL_PARAMETERS alat
    6.579727202290808d0     0.000000000000000d0     0.000000000000000d0
   -0.000775132442404d0     5.961596420607155d0     0.000000000000000d0
    0.000000000000000d0    -0.000000000000000d0    25.155947251439940d0
ATOMIC_SPECIES
Ti1 47.867d00 Ti.UPF
O1 15.999d00 O.UPF
C1 12.011d00 C.UPF
H1 1.008d00 H.UPF
N1 14.007d00 N.UPF
ATOMIC_POSITIONS {crystal}
Ti1      0.000123603383822d0     0.499897385958537d0     0.238512187198856d0
Ti1      0.500142521004230d0     0.250038178055688d0     0.238522014307695d0
O1       0.000095322930372d0     0.000084774873452d0     0.317452257936818d0
O1       0.500112315057126d0     0.000084209992886d0     0.290342007718641d0
O1       0.698270105622955d0     0.250236102495782d0     0.369213011426276d0
O1       0.301995368073695d0     0.249987007385122d0     0.369214717028816d0
Ti1      0.494323473155966d0     0.495821250907953d0     0.364160614626719d0
Ti1      0.993088645016440d0     0.251508894713595d0     0.367686280357585d0
O1       0.501230091321917d0     0.003298832657944d0     0.451881754616487d0
O1       0.000740980883805d0     0.001354748963627d0     0.421233184315099d0
O1       0.197122786810903d0     0.254348645824168d0     0.502275409720043d0
O1       0.806621186423351d0     0.254774201310590d0     0.502425670336367d0
Ti1      0.999564217763787d0     0.505813240464269d0     0.496699948832803d0
Ti1      0.496118034290864d0     0.254098766635651d0     0.497395046961328d0
O1       0.001131158430024d0     0.003809145440669d0     0.581790314411770d0
O1       0.503015767332924d0     0.005795847337287d0     0.555973413800482d0
O1       0.696668566383197d0     0.257233965998640d0     0.642240241019608d0
O1       0.310648061682667d0     0.258064715285091d0     0.640977073139536d0
Ti1      0.504697174253834d0     0.506323289754410d0     0.626142903169813d0
Ti1      0.003518793845526d0     0.232262329444797d0     0.630853902128202d0
O1       0.500093721748991d0     0.000084921243389d0     0.186906639369252d0
O1       0.003264943518179d0     0.005449772560637d0     0.682123746105728d0
O1       0.198268504441574d0     0.250236248865719d0     0.238667392858710d0
O1       0.801993766892314d0     0.249987153755059d0     0.238669098461250d0
Ti1      0.000123603383822d0     0.999897385958537d0     0.238512187198856d0
Ti1      0.500142521004230d0     0.750038178055688d0     0.238522014307695d0
O1       0.000095322930372d0     0.500084774873452d0     0.317452257936818d0
O1       0.500112315057126d0     0.500084209992886d0     0.290342007718641d0
O1       0.698270105622955d0     0.750236102495782d0     0.369213011426276d0
O1       0.301995368073695d0     0.749987007385122d0     0.369214717028816d0
Ti1      0.494820671102225d0     0.995889998329634d0     0.363972540287262d0
Ti1      0.993094355165702d0     0.750051788442967d0     0.367762126633143d0
O1       0.500226430517846d0     0.504483069576029d0     0.451640549127952d0
O1       0.000930346672502d0     0.501829605148664d0     0.422024880025949d0
O1       0.197136051618882d0     0.753949205251921d0     0.502789761735484d0
O1       0.806131364968788d0     0.753614487058073d0     0.502203807312358d0
Ti1      0.996513429706915d0     0.005161607034908d0     0.495125491904351d0
Ti1      0.496709870286762d0     0.754125570388702d0     0.497525253601209d0
O1       0.001883465127078d0     0.504512659690270d0     0.593192704079162d0
O1       0.502266021336343d0     0.505172981651525d0     0.554736839034066d0
O1       0.696940492288894d0     0.751280464000084d0     0.641076799602271d0
O1       0.311333919348332d0     0.752174057193355d0     0.641690970309823d0
Ti1      0.503470310790413d0     0.006959311932677d0     0.627539258493098d0
Ti1      0.004493011198527d0     0.778115307274568d0     0.631846095193877d0
O1       0.500093721748991d0     0.500084921243389d0     0.186906639369252d0
O1       0.198268504441574d0     0.750236248865719d0     0.238667392858710d0
O1       0.801993766892315d0     0.749987153755059d0     0.238669098461250d0
C1       0.029509146252325d0     0.410775094529476d0     0.772298053781054d0
O1       0.840795177723057d0     0.295975284234288d0     0.777897797657214d0
H1       0.024367821008611d0     0.558852620559350d0     0.797612479740391d0
H1       0.849761613199765d0     0.158637792117244d0     0.757088006950158d0
H1       0.158642482022532d0     0.306027523765064d0     0.783386209535256d0
H1       0.055972512136405d0     0.469029161910815d0     0.731030689717286d0
N1       0.433028737811974d0     0.901390663258641d0     0.783499633437613d0
N1       0.574407356360739d0     0.809293674050661d0     0.774684813783748d0
K_POINTS automatic
4 4 1  0 0 0 
