&CONTROL
  calculation='relax',
  prefix='calc',
  pseudo_dir='/storage/coda1/p-amedford6/0/shared/rich_project_chbe-medford/medford-share/data/pseudos_module/espresso/nninc/pbe/van',
  outdir='.',
  tefield=.true.,
  dipfield=.true.,
  tprnfor=.true.,
  disk_io='none',
/
&SYSTEM
  ibrav=0,
  celldm(1)=1.8897261245650618d0,
  nat=55,
  ntyp=5,
  ecutwfc=29.39945797996531d00,
  ecutrho=293.9945797996531d00,
  nbnd=211,
  occupations='smearing',
  smearing='fd',
  degauss=0.007349864494991328d00,
  input_dft='BEEF-vdW',
  edir=3,
  emaxpos=0.9934221093496283d00,
  eopreg=0.025d00,
  eamp=0.0d00,
  nosym=.false.,
  noinv=.false.,
  nosym_evc=.false.,
  no_t_rev=.false.,
/
&ELECTRONS
  diagonalization='david',
  conv_thr=7.349864494991327e-08,
  mixing_beta=0.05d00,
  electron_maxstep=1000,
  startingwfc='atomic',
/
&IONS
  ion_dynamics='ipi',
/
&CELL
  cell_dynamics='ipi',
/
CELL_PARAMETERS alat
    6.579727202290808d0     0.000000000000000d0     0.000000000000000d0
   -0.000775132442404d0     5.961596420607155d0     0.000000000000000d0
    0.000000000000000d0    -0.000000000000000d0    25.155947251439940d0
ATOMIC_SPECIES
Ti1 47.867d00 Ti.UPF
O1 15.999d00 O.UPF
C1 12.011d00 C.UPF
H1 1.008d00 H.UPF
N1 14.007d00 N.UPF
ATOMIC_POSITIONS {crystal}
Ti1      0.000123603383822d0     0.499897385958537d0     0.238512187198856d0
Ti1      0.500142521004230d0     0.250038178055688d0     0.238522014307695d0
O1       0.000095322930372d0     0.000084774873452d0     0.317452257936818d0
O1       0.500112315057126d0     0.000084209992886d0     0.290342007718641d0
O1       0.698270105622955d0     0.250236102495782d0     0.369213011426276d0
O1       0.301995368073695d0     0.249987007385122d0     0.369214717028816d0
Ti1      0.508859633298230d0     0.498860618408183d0     0.363985754208838d0
Ti1      0.006391557871454d0     0.254626218285056d0     0.368787516218229d0
O1       0.493393231108662d0     0.003541254169433d0     0.452381361286303d0
O1       0.998708341833214d0     0.001238149497218d0     0.421940833803814d0
O1       0.188679422461099d0     0.253366841362702d0     0.503842847234357d0
O1       0.796812244761857d0     0.252638878895040d0     0.503520630557977d0
Ti1      0.991791939977558d0     0.503346047574059d0     0.498908691705905d0
Ti1      0.491312052499533d0     0.254872655620790d0     0.497735353665750d0
O1       0.990443074601541d0     0.999988896011804d0     0.584278198656683d0
O1       0.489254262253745d0     0.003589045372741d0     0.556999865020965d0
O1       0.682766759067771d0     0.256185107693229d0     0.642432892924949d0
O1       0.299480873338196d0     0.260336150453847d0     0.645402729690587d0
Ti1      0.492926528796583d0     0.506225438328880d0     0.626185259854011d0
Ti1      0.980578706779489d0     0.238859273808623d0     0.630645935772825d0
O1       0.500093721748991d0     0.000084921243389d0     0.186906639369252d0
O1       0.989531801297389d0     0.007440301055075d0     0.684810669949180d0
O1       0.198268504441574d0     0.250236248865719d0     0.238667392858710d0
O1       0.801993766892314d0     0.249987153755059d0     0.238669098461250d0
Ti1      0.000123603383822d0     0.999897385958537d0     0.238512187198856d0
Ti1      0.500142521004230d0     0.750038178055688d0     0.238522014307695d0
O1       0.000095322930372d0     0.500084774873452d0     0.317452257936818d0
O1       0.500112315057126d0     0.500084209992886d0     0.290342007718641d0
O1       0.698270105622955d0     0.750236102495782d0     0.369213011426276d0
O1       0.301995368073695d0     0.749987007385122d0     0.369214717028816d0
Ti1      0.500254487078140d0     0.998902930875301d0     0.363855301365909d0
Ti1      0.005969863250666d0     0.752420598906280d0     0.368346379869399d0
O1       0.494173377085489d0     0.503516445365862d0     0.452078043770048d0
O1       0.998014085582497d0     0.500756808121253d0     0.422709742000195d0
O1       0.188984154002639d0     0.752439608933837d0     0.503526068376125d0
O1       0.796550079711330d0     0.753198786444410d0     0.503021255009566d0
Ti1      0.992513267491418d0     0.002427825394762d0     0.496623771750210d0
Ti1      0.491231155428060d0     0.754366103392886d0     0.497721111812331d0
O1       0.991013749897093d0     0.503766147321240d0     0.591316783445198d0
O1       0.492520748547309d0     0.503929001221066d0     0.555175657949594d0
O1       0.681879656720533d0     0.750891606212515d0     0.644312390995041d0
O1       0.299328430728624d0     0.751510850841545d0     0.643213621162500d0
Ti1      0.486107521078222d0     0.004509701302551d0     0.628204387833570d0
Ti1      0.992287311527091d0     0.777062773658146d0     0.637498873758583d0
O1       0.500093721748991d0     0.500084921243389d0     0.186906639369252d0
O1       0.198268504441574d0     0.750236248865719d0     0.238667392858710d0
O1       0.801993766892315d0     0.749987153755059d0     0.238669098461250d0
C1       0.894239639362952d0     0.495189108729777d0     0.753046387495515d0
O1       0.014886460123040d0     0.499002990116206d0     0.704527705167260d0
H1       0.846197456185019d0     0.666959856800965d0     0.761030501188353d0
H1       0.144546197062009d0     0.420303060608834d0     0.709119600207946d0
H1       0.764363917845178d0     0.385184526365255d0     0.747018931843234d0
H1       0.986572960736433d0     0.432573861389440d0     0.785656458872595d0
N1       0.332975834656654d0     0.773360142449949d0     0.799937579330004d0
N1       0.409055085269589d0     0.621335091707790d0     0.784713661554426d0
K_POINTS automatic
4 4 1  0 0 0 
