&CONTROL
  calculation='relax',
  prefix='calc',
  pseudo_dir='/storage/coda1/p-amedford6/0/shared/rich_project_chbe-medford/medford-share/data/pseudos_module/espresso/nninc/pbe/van',
  outdir='.',
  tefield=.true.,
  dipfield=.true.,
  tprnfor=.true.,
  disk_io='none',
/
&SYSTEM
  ibrav=0,
  celldm(1)=1.8897261245650618d0,
  nat=53,
  ntyp=5,
  ecutwfc=29.39945797996531d00,
  ecutrho=293.9945797996531d00,
  nbnd=210,
  occupations='smearing',
  smearing='fd',
  degauss=0.007349864494991328d00,
  input_dft='BEEF-vdW',
  edir=3,
  emaxpos=0.98479097133951d00,
  eopreg=0.025d00,
  eamp=0.0d00,
  nosym=.false.,
  noinv=.false.,
  nosym_evc=.false.,
  no_t_rev=.false.,
/
&ELECTRONS
  diagonalization='david',
  conv_thr=7.349864494991327e-08,
  mixing_beta=0.05d00,
  electron_maxstep=1000,
  startingpot='file',
  startingwfc='atomic',
/
&IONS
  ion_dynamics='ipi',
/
&CELL
  cell_dynamics='ipi',
/
CELL_PARAMETERS alat
    6.579727202290808d0     0.000000000000000d0     0.000000000000000d0
   -0.000775132442404d0     5.961596420607155d0     0.000000000000000d0
    0.000000000000000d0    -0.000000000000000d0    25.155947251439940d0
ATOMIC_SPECIES
C1 12.011d00 C.UPF
H1 1.008d00 H.UPF
O1 15.999d00 O.UPF
Ti1 47.867d00 Ti.UPF
N1 14.007d00 N.UPF
ATOMIC_POSITIONS {crystal}
C1       0.863596099191762d0     0.518892235549951d0     0.749778269780764d0
H1       0.141337782857808d0     0.508774418608915d0     0.719731594336443d0
H1       0.806333986384818d0     0.681691641681089d0     0.760664248823424d0
O1       0.500093721748991d0     0.000084921243389d0     0.186906639369252d0
O1       0.500093721748991d0     0.500084921243389d0     0.186906639369252d0
O1       0.198268504441574d0     0.250236248865719d0     0.238667392858710d0
O1       0.198268504441574d0     0.750236248865719d0     0.238667392858710d0
O1       0.801993766892314d0     0.249987153755059d0     0.238669098461250d0
O1       0.801993766892315d0     0.749987153755059d0     0.238669098461250d0
O1       0.500112315057126d0     0.000084209992886d0     0.290342007718641d0
O1       0.500112315057126d0     0.500084209992886d0     0.290342007718641d0
O1       0.000095322930372d0     0.000084774873452d0     0.317452257936818d0
O1       0.000095322930372d0     0.500084774873452d0     0.317452257936818d0
O1       0.698270105622955d0     0.250236102495782d0     0.369213011426276d0
O1       0.698270105622955d0     0.750236102495782d0     0.369213011426276d0
O1       0.301995368073695d0     0.249987007385122d0     0.369214717028816d0
O1       0.301995368073695d0     0.749987007385122d0     0.369214717028816d0
O1       0.999088438802812d0     0.000436080778629d0     0.421662166361294d0
O1       0.999266929622330d0     0.500645900691859d0     0.422534355798760d0
O1       0.497555712860588d0     0.501355779113167d0     0.451858256683134d0
O1       0.497506120057573d0     0.001403470845632d0     0.452115691801537d0
O1       0.192900355888503d0     0.751084147777184d0     0.502994974123012d0
O1       0.192913641027120d0     0.251539800141791d0     0.502963588201818d0
O1       0.800989689962624d0     0.751294614514062d0     0.503096641317455d0
O1       0.800944815887038d0     0.251468847487937d0     0.503094049996367d0
O1       0.495738312926264d0     0.501892525980966d0     0.554749376712955d0
O1       0.494574614225826d0     0.001911927256473d0     0.556609985061051d0
O1       0.998353827240101d0     0.001624902058558d0     0.583461202471981d0
O1       0.998085514307128d0     0.502021546184943d0     0.591185714140138d0
O1       0.689184555339011d0     0.750657779571743d0     0.641862184449975d0
O1       0.689265496000806d0     0.254765273829074d0     0.642048123923592d0
O1       0.305757357609887d0     0.257528240834571d0     0.643681963517209d0
O1       0.305964766072230d0     0.747559843655255d0     0.643684626511196d0
O1       0.996758130925707d0     0.000870737974748d0     0.683540642797855d0
O1       0.002008750516494d0     0.501838556278558d0     0.706755858938777d0
Ti1      0.000123603383822d0     0.499897385958537d0     0.238512187198856d0
Ti1      0.000123603383822d0     0.999897385958537d0     0.238512187198856d0
Ti1      0.500142521004230d0     0.250038178055688d0     0.238522014307695d0
Ti1      0.500142521004230d0     0.750038178055688d0     0.238522014307695d0
Ti1      0.504644479632145d0     0.000117066585420d0     0.363891249892744d0
Ti1      0.505038145283379d0     0.500126753463963d0     0.363985458316511d0
Ti1      0.006395285608125d0     0.747762709167195d0     0.368581022972919d0
Ti1      0.006399486047016d0     0.250110570171817d0     0.368371505233120d0
Ti1      0.994924723532940d0     0.002540855339170d0     0.496237232556958d0
Ti1      0.494194501658370d0     0.751342544143354d0     0.497505620745794d0
Ti1      0.494268123850980d0     0.251762013007818d0     0.497504177112078d0
Ti1      0.995705252957142d0     0.502326497121014d0     0.498703849095437d0
Ti1      0.498076545069864d0     0.502943552626460d0     0.625814484705288d0
Ti1      0.494207276101820d0     0.003009175663315d0     0.627989398437808d0
Ti1      0.994173200726915d0     0.768693855596984d0     0.632499537017850d0
Ti1      0.996240147737821d0     0.229311579857680d0     0.634430021834457d0
N1       0.713765113636359d0     0.170607883209246d0     0.782675303309768d0
N1       0.782439007822569d0     0.335501274408342d0     0.766953907003746d0
K_POINTS automatic
4 4 1  0 0 0 
