&CONTROL
  calculation='relax',
  prefix='calc',
  pseudo_dir='/storage/coda1/p-amedford6/0/shared/rich_project_chbe-medford/medford-share/data/pseudos_module/espresso/nninc/pbe/van',
  outdir='.',
  tefield=.true.,
  dipfield=.true.,
  tprnfor=.true.,
  disk_io='none',
/
&SYSTEM
  ibrav=0,
  celldm(1)=1.8897261245650618d0,
  nat=56,
  ntyp=5,
  ecutwfc=29.39945797996531d00,
  ecutrho=293.9945797996531d00,
  nbnd=211,
  occupations='smearing',
  smearing='fd',
  degauss=0.007349864494991328d00,
  input_dft='BEEF-vdW',
  edir=3,
  emaxpos=0.9974537349051924d00,
  eopreg=0.025d00,
  eamp=0.0d00,
  nosym=.false.,
  noinv=.false.,
  nosym_evc=.false.,
  no_t_rev=.false.,
/
&ELECTRONS
  diagonalization='david',
  conv_thr=7.349864494991327e-08,
  mixing_beta=0.05d00,
  electron_maxstep=1000,
  startingpot='file',
  startingwfc='atomic',
/
&IONS
  ion_dynamics='ipi',
/
&CELL
  cell_dynamics='ipi',
/
CELL_PARAMETERS alat
    6.579727202290808d0     0.000000000000000d0     0.000000000000000d0
   -0.000775132442404d0     5.961596420607155d0     0.000000000000000d0
    0.000000000000000d0    -0.000000000000000d0    25.155947251439940d0
ATOMIC_SPECIES
Ti1 47.867d00 Ti.UPF
O1 15.999d00 O.UPF
N1 14.007d00 N.UPF
C1 12.011d00 C.UPF
H1 1.008d00 H.UPF
ATOMIC_POSITIONS {crystal}
Ti1      0.000123603383822d0     0.499897385958536d0     0.238512187198856d0
Ti1      0.500142521004230d0     0.250038178055688d0     0.238522014307695d0
O1       0.000095322930372d0     0.000084774873452d0     0.317452257936818d0
O1       0.500112315057126d0     0.000084209992886d0     0.290342007718641d0
O1       0.698270105622955d0     0.250236102495782d0     0.369213011426276d0
O1       0.301995368073695d0     0.249987007385122d0     0.369214717028816d0
Ti1      0.500198167309398d0     0.485761668506182d0     0.364758343030283d0
Ti1      0.000261424674789d0     0.248709163236136d0     0.368424970923767d0
O1       0.501464902197626d0     0.997111819846403d0     0.451499553065986d0
O1       0.001882992193933d0     0.999479849154423d0     0.422099495650131d0
O1       0.194498015735051d0     0.248616406765320d0     0.502410194822078d0
O1       0.805237119754198d0     0.251697058946850d0     0.503008404315185d0
Ti1      0.997863350674735d0     0.490443315054772d0     0.499002985439309d0
Ti1      0.501393511288160d0     0.218029878718206d0     0.505043323159654d0
O1       0.001931703928742d0     0.005694514125858d0     0.583405868709744d0
O1       0.499656863734893d0     0.015777704692609d0     0.557683762604301d0
O1       0.693840812676170d0     0.268953022339432d0     0.637455601075066d0
O1       0.306895144120889d0     0.266641866042602d0     0.644682151518127d0
Ti1      0.501811342195089d0     0.510310921834277d0     0.622713393380983d0
Ti1      0.985108001015141d0     0.254823609784249d0     0.629228450261111d0
O1       0.500093721748991d0     0.000084921243389d0     0.186906639369252d0
O1       0.990625518006159d0     0.997727942122847d0     0.684497976619113d0
O1       0.198268504441574d0     0.250236248865719d0     0.238667392858710d0
O1       0.801993766892314d0     0.249987153755059d0     0.238669098461250d0
Ti1      0.000123603383822d0     0.999897385958536d0     0.238512187198856d0
Ti1      0.500142521004230d0     0.750038178055688d0     0.238522014307695d0
O1       0.000095322930372d0     0.500084774873452d0     0.317452257936818d0
O1       0.500112315057126d0     0.500084209992886d0     0.290342007718641d0
O1       0.698270105622955d0     0.750236102495782d0     0.369213011426276d0
O1       0.301995368073695d0     0.749987007385122d0     0.369214717028816d0
Ti1      0.500001644927041d0     0.985370751416071d0     0.364779031055315d0
Ti1      0.000183276761494d0     0.748948988039575d0     0.368476322807288d0
O1       0.500778189567584d0     0.502223778133062d0     0.449505358195983d0
O1       0.001460782485842d0     0.499964783615161d0     0.422656139091726d0
O1       0.195789896997735d0     0.751172944625657d0     0.502481374349801d0
O1       0.805755727277657d0     0.748907534628313d0     0.503029234249261d0
Ti1      0.006563657742161d0     0.990063138720680d0     0.497390776345033d0
Ti1      0.503441138016328d0     0.733517467437107d0     0.493790596315191d0
O1       0.006158305494570d0     0.498864984436557d0     0.586390304346714d0
O1       0.495165652574198d0     0.503697169804942d0     0.552483853499187d0
O1       0.694136614327136d0     0.741991479698573d0     0.638838211133264d0
O1       0.307326808099874d0     0.750753486115326d0     0.641718239685520d0
Ti1      0.490294500016245d0     0.006578393610690d0     0.645339888440472d0
Ti1      0.998978546356978d0     0.783523352635316d0     0.635953317063194d0
O1       0.500093721748991d0     0.500084921243389d0     0.186906639369252d0
O1       0.198268504441574d0     0.750236248865719d0     0.238667392858710d0
O1       0.801993766892315d0     0.749987153755059d0     0.238669098461250d0
N1       0.141922277265740d0     0.434676890009904d0     0.734434451973383d0
N1       0.990321683553314d0     0.487383455199792d0     0.701304854745684d0
C1       0.155440196702866d0     0.452098471588145d0     0.785571359743625d0
H1       0.291347074685775d0     0.388783598295092d0     0.804065208374257d0
H1       0.034450990856097d0     0.526208717438962d0     0.808000830441132d0
H1       0.258349720242970d0     0.358961626128200d0     0.713257543377266d0
H1       0.863093005547051d0     0.524759623412795d0     0.722627676087173d0
O1       0.536772499196402d0     0.015265373393316d0     0.719105766631548d0
H1       0.682369457599656d0     0.011418629225205d0     0.726094689925049d0
K_POINTS automatic
4 4 1  0 0 0 
