&CONTROL
  calculation='relax',
  prefix='calc',
  pseudo_dir='/storage/coda1/p-amedford6/0/shared/rich_project_chbe-medford/medford-share/data/pseudos_module/espresso/sssp/prec/v1_1/nonrel',
  outdir='.',
  tefield=.true.,
  dipfield=.true.,
  tprnfor=.true.,
  disk_io='none',
/
&SYSTEM
  ibrav=0,
  celldm(1)=1.8897261245650618d0,
  nat=6,
  ntyp=2,
  ecutwfc=29.39945797996531d00,
  ecutrho=293.9945797996531d00,
  nbnd=17,
  occupations='smearing',
  smearing='fd',
  degauss=0.007349864494991328d00,
  input_dft='BEEF-vdW',
  edir=3,
  emaxpos=0.0d00,
  eopreg=0.025d00,
  eamp=0.0d00,
  nosym=.false.,
  noinv=.false.,
  nosym_evc=.false.,
  no_t_rev=.false.,
/
&ELECTRONS
  diagonalization='david',
  conv_thr=7.349864494991327e-08,
  mixing_beta=0.05d00,
  electron_maxstep=1000,
  startingwfc='atomic',
/
&IONS
  ion_dynamics='ipi',
/
&CELL
  cell_dynamics='ipi',
/
CELL_PARAMETERS alat
   10.948214000000000d0     0.000000000000000d0     0.000000000000000d0
    0.000000000000000d0    11.092752000000001d0     0.000000000000000d0
    0.000000000000000d0     0.000000000000000d0    10.847887000000000d0
ATOMIC_SPECIES
N1 14.007d00 N.UPF
H1 1.008d00 H.UPF
ATOMIC_POSITIONS {crystal}
N1       0.500000000000000d0     0.564813402481188d0     0.467773309216809d0
N1       0.500000000000000d0     0.435186597518812d0     0.467773309216809d0
H1       0.519280039648476d0     0.598510450788046d0     0.553096285018456d0
H1       0.413390987790337d0     0.590602043568629d0     0.446903714981544d0
H1       0.480719960351524d0     0.401489549211954d0     0.553096285018456d0
H1       0.586609012209663d0     0.409397956431371d0     0.446903714981544d0
K_POINTS automatic
1 1 1  0 0 0 
