&CONTROL
  calculation='relax',
  prefix='calc',
  pseudo_dir='/storage/coda1/p-amedford6/0/shared/rich_project_chbe-medford/medford-share/data/pseudos_module/espresso/nninc/pbe/van',
  outdir='.',
  tefield=.true.,
  dipfield=.true.,
  tprnfor=.true.,
  disk_io='none',
/
&SYSTEM
  ibrav=0,
  celldm(1)=1.8897261245650618d0,
  nat=50,
  ntyp=4,
  ecutwfc=29.39945797996531d00,
  ecutrho=293.9945797996531d00,
  nbnd=206,
  occupations='smearing',
  smearing='fd',
  degauss=0.007349864494991328d00,
  nspin=2,
  starting_magnetization(1)=0.08333333333333333d00,
  starting_magnetization(2)=0.16666666666666666d00,
  starting_magnetization(3)=0.25d00,
  starting_magnetization(4)=0.2d00,
  input_dft='BEEF-vdW',
  edir=3,
  emaxpos=0.9899079556584973d00,
  eopreg=0.025d00,
  eamp=0.0d00,
  nosym=.false.,
  noinv=.false.,
  nosym_evc=.false.,
  no_t_rev=.false.,
/
&ELECTRONS
  diagonalization='david',
  conv_thr=7.349864494991327e-08,
  mixing_beta=0.05d00,
  electron_maxstep=1000,
  startingwfc='atomic',
/
&IONS
  ion_dynamics='ipi',
/
&CELL
  cell_dynamics='ipi',
/
CELL_PARAMETERS alat
    6.579727202290808d0     0.000000000000000d0     0.000000000000000d0
   -0.000775132442404d0     5.961596420607155d0     0.000000000000000d0
    0.000000000000000d0    -0.000000000000000d0    25.155947251439940d0
ATOMIC_SPECIES
Ti1 47.867d00 Ti.UPF
O1 15.999d00 O.UPF
C1 12.011d00 C.UPF
N1 14.007d00 N.UPF
ATOMIC_POSITIONS {crystal}
Ti1      0.000123603383822d0     0.499897385958537d0     0.238512187198856d0
Ti1      0.500142521004230d0     0.250038178055688d0     0.238522014307695d0
O1       0.000095322930372d0     0.000084774873452d0     0.317452257936818d0
O1       0.500112315057126d0     0.000084209992886d0     0.290342007718641d0
O1       0.698270105622955d0     0.250236102495782d0     0.369213011426276d0
O1       0.301995368073695d0     0.249987007385122d0     0.369214717028816d0
Ti1      0.501786670036166d0     0.484546424522584d0     0.364261280405185d0
Ti1      0.002336677536174d0     0.256869318769151d0     0.373082223889664d0
O1       0.499205839054394d0     0.998089734430668d0     0.451202948192381d0
O1       0.000179025906146d0     0.000968874938504d0     0.420119464934686d0
O1       0.192527100395269d0     0.250943114065502d0     0.503390619088362d0
O1       0.800305528861877d0     0.250459612995136d0     0.502664539793577d0
Ti1      0.011158224671014d0     0.498567584660863d0     0.511469188053253d0
Ti1      0.515571691528065d0     0.247034626623651d0     0.496682956366549d0
O1       0.998252863654079d0     0.999140507445987d0     0.581882123431987d0
O1       0.497541045534960d0     0.999289874991754d0     0.553449961235645d0
O1       0.684985237428021d0     0.250127206973231d0     0.639135517459321d0
O1       0.309912305478991d0     0.249771709462033d0     0.639167191171298d0
Ti1      0.495861404543518d0     0.499646165170754d0     0.625171356670584d0
Ti1      0.995099699842177d0     0.247888288974800d0     0.642652563474061d0
O1       0.500093721748991d0     0.000084921243389d0     0.186906639369252d0
O1       0.997381269396646d0     0.000380640411052d0     0.685789487397589d0
O1       0.198268504441574d0     0.250236248865719d0     0.238667392858710d0
O1       0.801993766892314d0     0.249987153755059d0     0.238669098461250d0
Ti1      0.000123603383822d0     0.999897385958537d0     0.238512187198856d0
Ti1      0.500142521004230d0     0.750038178055688d0     0.238522014307695d0
O1       0.000095322930372d0     0.500084774873452d0     0.317452257936818d0
O1       0.500112315057126d0     0.500084209992886d0     0.290342007718641d0
O1       0.698270105622955d0     0.750236102495782d0     0.369213011426276d0
O1       0.301995368073695d0     0.749987007385122d0     0.369214717028816d0
Ti1      0.500913601053365d0     0.984497239527796d0     0.364213364155108d0
Ti1      0.002082902533242d0     0.756146833903275d0     0.372916918191897d0
O1       0.499018442726224d0     0.498200958259849d0     0.451203241669273d0
O1       0.000263408846203d0     0.501013891637529d0     0.419942845602647d0
O1       0.192484681124964d0     0.746893996892527d0     0.503355138970126d0
O1       0.800310042585620d0     0.747246141951107d0     0.502673128729061d0
Ti1      0.009439950830150d0     0.998755177818447d0     0.509526068106650d0
Ti1      0.515531746157716d0     0.746718740359045d0     0.496742924306324d0
O1       0.999339535238380d0     0.498907141976338d0     0.585528360401699d0
O1       0.497519839083169d0     0.499331606557485d0     0.553601412752062d0
O1       0.685033108567170d0     0.750014460965193d0     0.639130625313286d0
O1       0.309898738814036d0     0.750138619889294d0     0.639164628773048d0
Ti1      0.495675803968165d0     0.999687345174702d0     0.625223582728431d0
Ti1      0.994810339479727d0     0.756317280714620d0     0.642585462193507d0
O1       0.500093721748991d0     0.500084921243389d0     0.186906639369252d0
O1       0.198268504441574d0     0.750236248865719d0     0.238667392858710d0
O1       0.801993766892315d0     0.749987153755059d0     0.238669098461250d0
C1       0.997345346731628d0     0.500815513584382d0     0.696647938615437d0
N1       0.999148605408875d0     0.505513414951806d0     0.792909271947742d0
N1       0.998384441527516d0     0.503442781968062d0     0.747277147963018d0
K_POINTS automatic
4 4 1  0 0 0 
