&CONTROL
  calculation='relax',
  prefix='calc',
  pseudo_dir='/storage/coda1/p-amedford6/0/shared/rich_project_chbe-medford/medford-share/data/pseudos_module/espresso/nninc/pbe/van',
  outdir='.',
  tefield=.true.,
  dipfield=.true.,
  tprnfor=.true.,
  disk_io='none',
/
&SYSTEM
  ibrav=0,
  celldm(1)=1.8897261245650618d0,
  nat=52,
  ntyp=5,
  ecutwfc=29.39945797996531d00,
  ecutrho=293.9945797996531d00,
  nbnd=205,
  occupations='smearing',
  smearing='fd',
  degauss=0.007349864494991328d00,
  input_dft='BEEF-vdW',
  edir=3,
  emaxpos=0.988881422694375d00,
  eopreg=0.025d00,
  eamp=0.0d00,
  nosym=.false.,
  noinv=.false.,
  nosym_evc=.false.,
  no_t_rev=.false.,
/
&ELECTRONS
  diagonalization='david',
  conv_thr=7.349864494991327e-08,
  mixing_beta=0.05d00,
  electron_maxstep=1000,
  startingwfc='atomic',
/
&IONS
  ion_dynamics='ipi',
/
&CELL
  cell_dynamics='ipi',
/
CELL_PARAMETERS alat
    6.579727202290808d0     0.000000000000000d0     0.000000000000000d0
   -0.000775132442404d0     5.961596420607155d0     0.000000000000000d0
    0.000000000000000d0    -0.000000000000000d0    25.155947251439940d0
ATOMIC_SPECIES
Ti1 47.867d00 Ti.UPF
O1 15.999d00 O.UPF
N1 14.007d00 N.UPF
C1 12.011d00 C.UPF
H1 1.008d00 H.UPF
ATOMIC_POSITIONS {crystal}
Ti1      0.000123603383822d0     0.499897385958536d0     0.238512187198856d0
Ti1      0.500142521004230d0     0.250038178055688d0     0.238522014307695d0
O1       0.000095322930372d0     0.000084774873452d0     0.317452257936818d0
O1       0.500112315057126d0     0.000084209992886d0     0.290342007718641d0
O1       0.698270105622955d0     0.250236102495782d0     0.369213011426276d0
O1       0.301995368073695d0     0.249987007385122d0     0.369214717028816d0
Ti1      0.500198167309398d0     0.485761668506182d0     0.364758343030283d0
Ti1      0.000261424674789d0     0.248709163236136d0     0.368424970923767d0
O1       0.499430482351495d0     0.994440574940562d0     0.452060265216591d0
O1       0.001882992193933d0     0.999479849154423d0     0.422099495650131d0
O1       0.196327897137747d0     0.246322292686798d0     0.502978824782232d0
O1       0.803925313241864d0     0.246296651638735d0     0.502478026635317d0
Ti1      0.000789788712700d0     0.494498104180126d0     0.498404034177186d0
Ti1      0.501078181127146d0     0.245094560907656d0     0.497536299303676d0
O1       0.998515391808263d0     0.004310268394088d0     0.583564821185137d0
O1       0.501551408529541d0     0.996365966550474d0     0.556291881438216d0
O1       0.689358025943933d0     0.245511923078601d0     0.644392335025309d0
O1       0.309325865376682d0     0.244383376351492d0     0.643875762190793d0
Ti1      0.498817074416394d0     0.492615739334560d0     0.626004326287404d0
Ti1      0.997364743708771d0     0.234362649939788d0     0.638627065182343d0
O1       0.500093721748991d0     0.000084921243389d0     0.186906639369252d0
O1       0.000797620993648d0     0.974775603235322d0     0.684141610873519d0
O1       0.198268504441574d0     0.250236248865719d0     0.238667392858710d0
O1       0.801993766892314d0     0.249987153755059d0     0.238669098461250d0
Ti1      0.000123603383822d0     0.999897385958536d0     0.238512187198856d0
Ti1      0.500142521004230d0     0.750038178055688d0     0.238522014307695d0
O1       0.000095322930372d0     0.500084774873452d0     0.317452257936818d0
O1       0.500112315057126d0     0.500084209992886d0     0.290342007718641d0
O1       0.698270105622955d0     0.750236102495782d0     0.369213011426276d0
O1       0.301995368073695d0     0.749987007385122d0     0.369214717028816d0
Ti1      0.500001644927041d0     0.985370751416071d0     0.364779031055315d0
Ti1      0.000183276761494d0     0.748948988039575d0     0.368476322807288d0
O1       0.499662264045693d0     0.496583717898185d0     0.451815046202478d0
O1       0.001460782485842d0     0.499964783615161d0     0.422656139091726d0
O1       0.196003882493345d0     0.745351779801265d0     0.504182296888932d0
O1       0.804094434812114d0     0.745283389017532d0     0.503629620527192d0
Ti1      0.000255119887518d0     0.996441212427267d0     0.497278076031363d0
Ti1      0.501191649126954d0     0.744638341243939d0     0.497912985992316d0
O1       0.997878504022189d0     0.486635597907029d0     0.592529279829369d0
O1       0.500538282940986d0     0.492569056359660d0     0.554833008409224d0
O1       0.689576634181216d0     0.739284064475865d0     0.642428732177171d0
O1       0.309345737741840d0     0.741221012661024d0     0.640610930945893d0
Ti1      0.500387666059329d0     0.992455283209463d0     0.627699501034706d0
Ti1      0.001794898872697d0     0.771599454833137d0     0.630091275412674d0
O1       0.500093721748991d0     0.500084921243389d0     0.186906639369252d0
O1       0.198268504441574d0     0.750236248865719d0     0.238667392858710d0
O1       0.801993766892315d0     0.749987153755059d0     0.238669098461250d0
N1       0.996839562910443d0     0.449931089792273d0     0.713696953502102d0
C1       0.128264676697573d0     0.428442352867907d0     0.751191891819562d0
H1       0.103461148802343d0     0.495767160692552d0     0.790856206019497d0
H1       0.267850186106750d0     0.337795348958541d0     0.743161240322466d0
H1       0.869361148746538d0     0.534265211720224d0     0.725177923474186d0
K_POINTS automatic
4 4 1  0 0 0 
