&CONTROL
  calculation='relax',
  prefix='calc',
  pseudo_dir='/storage/coda1/p-amedford6/0/shared/rich_project_chbe-medford/medford-share/data/pseudos_module/espresso/nninc/pbe/van',
  outdir='.',
  tefield=.true.,
  dipfield=.true.,
  tprnfor=.true.,
  disk_io='none',
/
&SYSTEM
  ibrav=0,
  celldm(1)=1.8897261245650618d0,
  nat=51,
  ntyp=4,
  ecutwfc=29.39945797996531d00,
  ecutrho=293.9945797996531d00,
  nbnd=205,
  occupations='smearing',
  smearing='fd',
  degauss=0.007349864494991328d00,
  input_dft='BEEF-vdW',
  edir=3,
  emaxpos=0.9776528286540114d00,
  eopreg=0.025d00,
  eamp=0.0d00,
  nosym=.false.,
  noinv=.false.,
  nosym_evc=.false.,
  no_t_rev=.false.,
/
&ELECTRONS
  diagonalization='david',
  conv_thr=7.349864494991327e-08,
  mixing_beta=0.05d00,
  electron_maxstep=1000,
  startingwfc='atomic',
/
&IONS
  ion_dynamics='ipi',
/
&CELL
  cell_dynamics='ipi',
/
CELL_PARAMETERS alat
    6.579727202290808d0     0.000000000000000d0     0.000000000000000d0
   -0.000775132442404d0     5.961596420607155d0     0.000000000000000d0
    0.000000000000000d0    -0.000000000000000d0    25.155947251439933d0
ATOMIC_SPECIES
Ti1 47.867d00 Ti.UPF
O1 15.999d00 O.UPF
C1 12.011d00 C.UPF
H1 1.008d00 H.UPF
ATOMIC_POSITIONS {crystal}
Ti1      0.000123603383822d0     0.499897385958537d0     0.238512187198856d0
Ti1      0.500142521004230d0     0.250038178055688d0     0.238522014307695d0
O1       0.000095322930372d0     0.000084774873452d0     0.317452257936819d0
O1       0.500112315057126d0     0.000084209992886d0     0.290342007718641d0
O1       0.698270105622955d0     0.250236102495782d0     0.369213011426276d0
O1       0.301995368073695d0     0.249987007385122d0     0.369214717028816d0
Ti1      0.500190661470560d0     0.499476356236026d0     0.364362395747206d0
Ti1      0.000043733603131d0     0.245418293267995d0     0.368734282780211d0
O1       0.502884562826807d0     0.999261553415741d0     0.451309568998115d0
O1       0.000509189932509d0     0.998989086734383d0     0.421037935029668d0
O1       0.199680600145356d0     0.248636545644032d0     0.501578204227369d0
O1       0.805025645078778d0     0.248396757416402d0     0.502407622118017d0
Ti1      0.004488429061103d0     0.500057727273065d0     0.508878829218534d0
Ti1      0.505546449026304d0     0.249615644739939d0     0.496842757973319d0
O1       0.007648477004918d0     0.996260670018675d0     0.581111705123602d0
O1       0.500427709776081d0     0.999960636597168d0     0.554686788145453d0
O1       0.695898286050204d0     0.250453460539833d0     0.639038394804539d0
O1       0.314595447575280d0     0.254503802858179d0     0.641914867351950d0
Ti1      0.508374058907793d0     0.501019574778730d0     0.625697909908285d0
Ti1      0.009493946305857d0     0.259970200096901d0     0.639435248446229d0
O1       0.500093721748990d0     0.000084921243389d0     0.186906639369252d0
O1       0.002943728746704d0     0.989078665018170d0     0.685179219820833d0
O1       0.198268504441574d0     0.250236248865719d0     0.238667392858710d0
O1       0.801993766892313d0     0.249987153755059d0     0.238669098461250d0
Ti1      0.000123603383822d0     0.999897385958537d0     0.238512187198856d0
Ti1      0.500142521004230d0     0.750038178055688d0     0.238522014307695d0
O1       0.000095322930372d0     0.500084774873452d0     0.317452257936819d0
O1       0.500112315057126d0     0.500084209992886d0     0.290342007718641d0
O1       0.698270105622955d0     0.750236102495782d0     0.369213011426276d0
O1       0.301995368073695d0     0.749987007385122d0     0.369214717028816d0
Ti1      0.500240918961234d0     0.999475459909838d0     0.364221262320910d0
Ti1      0.000201280599849d0     0.740394879377836d0     0.373785289624500d0
O1       0.502784765485296d0     0.499118558144310d0     0.451173811387598d0
O1       0.000287242593033d0     0.498056654336260d0     0.420050353226708d0
O1       0.199851174487794d0     0.747657615680485d0     0.501502494039925d0
O1       0.804629504592516d0     0.747662602769057d0     0.502308000219293d0
Ti1      0.005580759058911d0     0.001108587213668d0     0.501828493657577d0
Ti1      0.505438693092244d0     0.749011086025558d0     0.496701012533648d0
O1       0.007436981989433d0     0.494385768600263d0     0.583136553552734d0
O1       0.501804490528100d0     0.498587721465938d0     0.554164788227123d0
O1       0.695116031349024d0     0.750945171793679d0     0.637965080951719d0
O1       0.317099889542642d0     0.747367337701357d0     0.641258548015136d0
Ti1      0.506079281021164d0     0.999730121691041d0     0.626068501250889d0
Ti1      0.006839213820100d0     0.781594402522984d0     0.635653302890823d0
O1       0.500093721748990d0     0.500084921243389d0     0.186906639369252d0
C1       0.992503926895009d0     0.471578975106786d0     0.704773604939195d0
O1       0.198268504441574d0     0.750236248865719d0     0.238667392858710d0
O1       0.801993766892314d0     0.749987153755059d0     0.238669098461250d0
H1       0.129576190172307d0     0.514937427215124d0     0.727384020248795d0
O1       0.819744078540080d0     0.494126950025818d0     0.734695308640571d0
H1       0.850344585003379d0     0.565003018961896d0     0.768399017938771d0
K_POINTS automatic
4 4 1  0 0 0 
