&CONTROL
  calculation='relax',
  prefix='calc',
  pseudo_dir='/storage/coda1/p-amedford6/0/shared/rich_project_chbe-medford/medford-share/data/pseudos_module/espresso/nninc/pbe/van',
  outdir='.',
  tefield=.true.,
  dipfield=.true.,
  tprnfor=.true.,
  disk_io='none',
/
&SYSTEM
  ibrav=0,
  celldm(1)=1.8897261245650618d0,
  nat=52,
  ntyp=5,
  ecutwfc=29.39945797996531d00,
  ecutrho=293.9945797996531d00,
  nbnd=207,
  occupations='smearing',
  smearing='fd',
  degauss=0.007349864494991328d00,
  input_dft='BEEF-vdW',
  edir=3,
  emaxpos=0.9852960058409896d00,
  eopreg=0.025d00,
  eamp=0.0d00,
  nosym=.false.,
  noinv=.false.,
  nosym_evc=.false.,
  no_t_rev=.false.,
/
&ELECTRONS
  diagonalization='david',
  conv_thr=7.349864494991327e-08,
  mixing_beta=0.05d00,
  electron_maxstep=1000,
  startingpot='file',
  startingwfc='atomic',
/
&IONS
  ion_dynamics='ipi',
/
&CELL
  cell_dynamics='ipi',
/
CELL_PARAMETERS alat
    6.579727202290808d0     0.000000000000000d0     0.000000000000000d0
   -0.000775132442404d0     5.961596420607155d0     0.000000000000000d0
    0.000000000000000d0    -0.000000000000000d0    25.155947251439940d0
ATOMIC_SPECIES
Ti1 47.867d00 Ti.UPF
O1 15.999d00 O.UPF
N1 14.007d00 N.UPF
C1 12.011d00 C.UPF
H1 1.008d00 H.UPF
ATOMIC_POSITIONS {crystal}
Ti1      0.000123603383822d0     0.499897385958536d0     0.238512187198856d0
Ti1      0.500142521004230d0     0.250038178055688d0     0.238522014307695d0
O1       0.000095322930372d0     0.000084774873452d0     0.317452257936818d0
O1       0.500112315057126d0     0.000084209992886d0     0.290342007718641d0
O1       0.698270105622955d0     0.250236102495782d0     0.369213011426276d0
O1       0.301995368073695d0     0.249987007385122d0     0.369214717028816d0
Ti1      0.500198167309398d0     0.485761668506182d0     0.364758343030283d0
Ti1      0.000261424674789d0     0.248709163236136d0     0.368424970923767d0
O1       0.498882448193966d0     0.997392655448309d0     0.448983872469554d0
O1       0.001882992193933d0     0.999479849154423d0     0.422099495650131d0
O1       0.199638644344586d0     0.247691847521492d0     0.501905233959070d0
O1       0.804423411319555d0     0.245402136567694d0     0.502320761209745d0
Ti1      0.985930564046852d0     0.495342952409876d0     0.508332240376789d0
Ti1      0.479629889296284d0     0.245817809108293d0     0.495369451249732d0
O1       0.001930842503626d0     0.992523384514324d0     0.581649291515264d0
O1       0.499967941639441d0     0.997358074643809d0     0.551483224817593d0
O1       0.684710583847375d0     0.247678854314233d0     0.634876608980426d0
O1       0.309647567374805d0     0.249134033207647d0     0.638580771684910d0
Ti1      0.504586994154347d0     0.498591592839328d0     0.622950031351851d0
Ti1      0.998119703243522d0     0.236948897369044d0     0.635837458170887d0
O1       0.500093721748991d0     0.000084921243389d0     0.186906639369252d0
O1       0.984375656032481d0     0.005971138035949d0     0.683760182647380d0
O1       0.198268504441574d0     0.250236248865719d0     0.238667392858710d0
O1       0.801993766892314d0     0.249987153755059d0     0.238669098461250d0
Ti1      0.000123603383822d0     0.999897385958536d0     0.238512187198856d0
Ti1      0.500142521004230d0     0.750038178055688d0     0.238522014307695d0
O1       0.000095322930372d0     0.500084774873452d0     0.317452257936818d0
O1       0.500112315057126d0     0.500084209992886d0     0.290342007718641d0
O1       0.698270105622955d0     0.750236102495782d0     0.369213011426276d0
O1       0.301995368073695d0     0.749987007385122d0     0.369214717028816d0
Ti1      0.500001644927041d0     0.985370751416071d0     0.364779031055315d0
Ti1      0.000183276761494d0     0.748948988039575d0     0.368476322807288d0
O1       0.499026226836874d0     0.496856680464235d0     0.448932971767844d0
O1       0.001460782485842d0     0.499964783615161d0     0.422656139091726d0
O1       0.199336388637383d0     0.746952619654856d0     0.501506466405973d0
O1       0.803921254612462d0     0.747687203119522d0     0.501924114573771d0
Ti1      0.984196670309454d0     0.993971754762433d0     0.506473107986108d0
Ti1      0.479564914043586d0     0.745596733499265d0     0.495120053969269d0
O1       0.996508205553020d0     0.497845502329786d0     0.581792461057930d0
O1       0.500922227747360d0     0.498129773921715d0     0.551197670047533d0
O1       0.682093501053172d0     0.747278771667778d0     0.638487281986743d0
O1       0.309542745693105d0     0.748104989250075d0     0.635414904625350d0
Ti1      0.501073484359810d0     0.998032585779116d0     0.623141610990952d0
Ti1      0.014244559830501d0     0.748352915699039d0     0.645337495913862d0
O1       0.500093721748991d0     0.500084921243389d0     0.186906639369252d0
O1       0.198268504441574d0     0.750236248865719d0     0.238667392858710d0
O1       0.801993766892315d0     0.749987153755059d0     0.238669098461250d0
N1       0.096975961957897d0     0.595311315206410d0     0.719995380886920d0
C1       0.180575482553925d0     0.552862388568274d0     0.764994623729946d0
H1       0.270546564394220d0     0.680257503387790d0     0.783685372312727d0
H1       0.158767286723587d0     0.388810820103111d0     0.783657055596763d0
N1       0.982431950666518d0     0.472795240158347d0     0.690030595418951d0
K_POINTS automatic
4 4 1  0 0 0 
