&CONTROL
  calculation='relax',
  prefix='calc',
  pseudo_dir='/storage/coda1/p-amedford6/0/shared/rich_project_chbe-medford/medford-share/data/pseudos_module/espresso/nninc/pbe/van',
  outdir='.',
  tefield=.true.,
  dipfield=.true.,
  tprnfor=.true.,
  disk_io='none',
/
&SYSTEM
  ibrav=0,
  celldm(1)=1.8897261245650618d0,
  nat=56,
  ntyp=5,
  ecutwfc=29.39945797996531d00,
  ecutrho=293.9945797996531d00,
  nbnd=211,
  occupations='smearing',
  smearing='fd',
  degauss=0.007349864494991328d00,
  input_dft='BEEF-vdW',
  edir=3,
  emaxpos=0.9803955418863041d00,
  eopreg=0.025d00,
  eamp=0.0d00,
  nosym=.false.,
  noinv=.false.,
  nosym_evc=.false.,
  no_t_rev=.false.,
/
&ELECTRONS
  diagonalization='david',
  conv_thr=7.349864494991327e-08,
  mixing_beta=0.05d00,
  electron_maxstep=1000,
  startingpot='file',
  startingwfc='atomic',
/
&IONS
  ion_dynamics='ipi',
/
&CELL
  cell_dynamics='ipi',
/
CELL_PARAMETERS alat
    6.579727202290808d0     0.000000000000000d0     0.000000000000000d0
   -0.000775132442404d0     5.961596420607155d0     0.000000000000000d0
    0.000000000000000d0    -0.000000000000000d0    25.155947251439940d0
ATOMIC_SPECIES
Ti1 47.867d00 Ti.UPF
O1 15.999d00 O.UPF
H1 1.008d00 H.UPF
N1 14.007d00 N.UPF
C1 12.011d00 C.UPF
ATOMIC_POSITIONS {crystal}
Ti1      0.000123603383822d0     0.499897385958536d0     0.238512187198856d0
Ti1      0.500142521004230d0     0.250038178055688d0     0.238522014307695d0
O1       0.000095322930372d0     0.000084774873452d0     0.317452257936818d0
O1       0.500112315057126d0     0.000084209992886d0     0.290342007718641d0
O1       0.698270105622955d0     0.250236102495782d0     0.369213011426276d0
O1       0.301995368073695d0     0.249987007385122d0     0.369214717028816d0
Ti1      0.500198167309398d0     0.485761668506182d0     0.364758343030283d0
Ti1      0.000261424674789d0     0.248709163236136d0     0.368424970923767d0
O1       0.500932922441288d0     0.001040300036129d0     0.451563942524141d0
O1       0.001882992193933d0     0.999479849154423d0     0.422099495650131d0
O1       0.193519681245531d0     0.252581248932788d0     0.502125992519691d0
O1       0.804925732967292d0     0.247515537231180d0     0.503575073594890d0
Ti1      0.008478049143381d0     0.495477426510375d0     0.498994296111304d0
Ti1      0.505648585410755d0     0.258781281588021d0     0.499421458216558d0
O1       0.020958838859105d0     0.989920263493444d0     0.581242381342649d0
O1       0.484524372988206d0     0.001659927223555d0     0.553555776078264d0
O1       0.706169156923339d0     0.235079160504475d0     0.630278651278199d0
O1       0.316498310863174d0     0.260971759254510d0     0.640998001095688d0
Ti1      0.509944045886564d0     0.512031763938794d0     0.630457265551079d0
Ti1      0.014445408932419d0     0.221119464037941d0     0.627719846295992d0
O1       0.500093721748991d0     0.000084921243389d0     0.186906639369252d0
O1       0.010976328552813d0     0.005362469198206d0     0.681325624293430d0
O1       0.198268504441574d0     0.250236248865719d0     0.238667392858710d0
O1       0.801993766892314d0     0.249987153755059d0     0.238669098461250d0
Ti1      0.000123603383822d0     0.999897385958536d0     0.238512187198856d0
Ti1      0.500142521004230d0     0.750038178055688d0     0.238522014307695d0
O1       0.000095322930372d0     0.500084774873452d0     0.317452257936818d0
O1       0.500112315057126d0     0.500084209992886d0     0.290342007718641d0
O1       0.698270105622955d0     0.750236102495782d0     0.369213011426276d0
O1       0.301995368073695d0     0.749987007385122d0     0.369214717028816d0
Ti1      0.500001644927041d0     0.985370751416071d0     0.364779031055315d0
Ti1      0.000183276761494d0     0.748948988039575d0     0.368476322807288d0
O1       0.501336202938186d0     0.501508871643920d0     0.451364208195730d0
O1       0.001460782485842d0     0.499964783615161d0     0.422656139091726d0
O1       0.193668021284481d0     0.746511890290336d0     0.501328464952443d0
O1       0.804130194402271d0     0.752722017069427d0     0.503168778854549d0
Ti1      0.998599451533826d0     0.994039972990295d0     0.496740119958291d0
Ti1      0.503532968184215d0     0.755234504567698d0     0.498379656391498d0
O1       0.010302587354008d0     0.499749628082968d0     0.589776079391258d0
O1       0.501591396348685d0     0.499136323818811d0     0.554024029330440d0
O1       0.700854632133460d0     0.768041514591597d0     0.626967848310944d0
O1       0.310561408749028d0     0.731812327130236d0     0.641764076494752d0
Ti1      0.509946062325085d0     0.013495985915600d0     0.626683237397609d0
Ti1      0.998191870390158d0     0.759422292775548d0     0.635101312350984d0
O1       0.500093721748991d0     0.500084921243389d0     0.186906639369252d0
O1       0.198268504441574d0     0.750236248865719d0     0.238667392858710d0
O1       0.801993766892315d0     0.749987153755059d0     0.238669098461250d0
H1       0.623713101856625d0     0.413850171685194d0     0.737984443282512d0
N1       0.865778700167189d0     0.551993679332703d0     0.707016673621651d0
C1       0.987452869873739d0     0.460813131609706d0     0.741192701727667d0
H1       0.932078719589403d0     0.358535524830682d0     0.773884444403356d0
H1       0.148989432803880d0     0.488061467750327d0     0.736706960027914d0
N1       0.659802883444666d0     0.533220717121529d0     0.710138958911181d0
O1       0.502782457698826d0     0.983109358678976d0     0.719436464000557d0
H1       0.558433401970713d0     0.828441626902214d0     0.724286487987424d0
H1       0.358748676818647d0     0.972429709634785d0     0.725886597833578d0
K_POINTS automatic
4 4 1  0 0 0 
