&CONTROL
  calculation='relax',
  prefix='calc',
  pseudo_dir='/storage/coda1/p-amedford6/0/shared/rich_project_chbe-medford/medford-share/data/pseudos_module/espresso/nninc/pbe/van',
  outdir='.',
  tefield=.true.,
  dipfield=.true.,
  tprnfor=.true.,
  disk_io='none',
/
&SYSTEM
  ibrav=0,
  celldm(1)=1.8897261245650618d0,
  nat=50,
  ntyp=4,
  ecutwfc=29.39945797996531d00,
  ecutrho=293.9945797996531d00,
  nbnd=202,
  occupations='smearing',
  smearing='fd',
  degauss=0.007349864494991328d00,
  input_dft='BEEF-vdW',
  edir=3,
  emaxpos=0.9556005868383436d00,
  eopreg=0.025d00,
  eamp=0.0d00,
  nosym=.false.,
  noinv=.false.,
  nosym_evc=.false.,
  no_t_rev=.false.,
/
&ELECTRONS
  diagonalization='david',
  conv_thr=7.349864494991327e-08,
  mixing_beta=0.05d00,
  electron_maxstep=1000,
  startingpot='file',
  startingwfc='atomic',
/
&IONS
  ion_dynamics='ipi',
/
&CELL
  cell_dynamics='ipi',
/
CELL_PARAMETERS alat
    6.579727202290808d0     0.000000000000000d0     0.000000000000000d0
   -0.000775132442404d0     5.961596420607155d0     0.000000000000000d0
    0.000000000000000d0    -0.000000000000000d0    25.155947251439940d0
ATOMIC_SPECIES
Ti1 47.867d00 Ti.UPF
O1 15.999d00 O.UPF
C1 12.011d00 C.UPF
H1 1.008d00 H.UPF
ATOMIC_POSITIONS {crystal}
Ti1      0.000123603383822d0     0.499897385958537d0     0.238512187198856d0
Ti1      0.500142521004230d0     0.250038178055688d0     0.238522014307695d0
O1       0.000095322930372d0     0.000084774873452d0     0.317452257936818d0
O1       0.500112315057126d0     0.000084209992886d0     0.290342007718641d0
O1       0.698270105622955d0     0.250236102495782d0     0.369213011426276d0
O1       0.301995368073695d0     0.249987007385122d0     0.369214717028816d0
Ti1      0.497896281643274d0     0.482428156735259d0     0.364250926874180d0
Ti1      0.997805808752113d0     0.241294541155022d0     0.372835917832181d0
O1       0.496250493727917d0     0.000768040255315d0     0.451398156486009d0
O1       0.999644982908089d0     0.997927236364770d0     0.419965948671233d0
O1       0.191402980310048d0     0.251235056447359d0     0.503577660922433d0
O1       0.797671505927090d0     0.251325014442835d0     0.502257933450958d0
Ti1      0.009964406389950d0     0.497427715056059d0     0.511595199087547d0
Ti1      0.513738574591297d0     0.250343166849127d0     0.496688999427869d0
O1       0.992499851710090d0     0.993140208523917d0     0.580767962731329d0
O1       0.496712579580554d0     0.002467640300569d0     0.554467218465664d0
O1       0.682614175997321d0     0.258461864565803d0     0.640144555839867d0
O1       0.304938583338144d0     0.258826488483503d0     0.640048816521453d0
Ti1      0.495280082930551d0     0.506389711619758d0     0.625191091591548d0
Ti1      0.996967953364808d0     0.271419201432752d0     0.644341879321231d0
O1       0.500093721748991d0     0.000084921243389d0     0.186906639369252d0
O1       0.994691745571129d0     0.008858963492795d0     0.686036559066765d0
O1       0.198268504441574d0     0.250236248865719d0     0.238667392858710d0
O1       0.801993766892314d0     0.249987153755059d0     0.238669098461250d0
Ti1      0.000123603383822d0     0.999897385958537d0     0.238512187198856d0
Ti1      0.500142521004230d0     0.750038178055688d0     0.238522014307695d0
O1       0.000095322930372d0     0.500084774873452d0     0.317452257936818d0
O1       0.500112315057126d0     0.500084209992886d0     0.290342007718641d0
O1       0.698270105622955d0     0.750236102495782d0     0.369213011426276d0
O1       0.301995368073695d0     0.749987007385122d0     0.369214717028816d0
Ti1      0.498717300710160d0     0.982374722120800d0     0.364200087479729d0
Ti1      0.998160276428722d0     0.740386125988951d0     0.373100020143106d0
O1       0.497110572942069d0     0.500001893500945d0     0.451193957263371d0
O1       0.999644909398354d0     0.497720899644199d0     0.419785977895182d0
O1       0.191804404190131d0     0.746278707807283d0     0.503238640566645d0
O1       0.797256851832423d0     0.747764784085727d0     0.501871387275279d0
Ti1      0.006748223146577d0     0.996870331011898d0     0.509147807191873d0
Ti1      0.513491214771648d0     0.749723633963996d0     0.496344823339644d0
O1       0.995739360004260d0     0.499295323421895d0     0.585001971056726d0
O1       0.496776227766733d0     0.502415763824326d0     0.554012370841097d0
O1       0.681746157486127d0     0.756758253162977d0     0.640117791674701d0
O1       0.305300681259781d0     0.756571900487873d0     0.639911156098169d0
Ti1      0.496833171087608d0     0.005997573751195d0     0.625894148376392d0
Ti1      0.997933040189460d0     0.775792278962285d0     0.642808477417653d0
O1       0.500093721748991d0     0.500084921243389d0     0.186906639369252d0
O1       0.198268504441574d0     0.750236248865719d0     0.238667392858710d0
O1       0.801993766892315d0     0.749987153755059d0     0.238669098461250d0
C1       0.990365138516522d0     0.507158417009090d0     0.700135228977724d0
H1       0.128822875188829d0     0.526623628593415d0     0.724294534307435d0
H1       0.854345280695188d0     0.522683993972573d0     0.724052469567630d0
K_POINTS automatic
4 4 1  0 0 0 
