&CONTROL
  calculation='relax',
  prefix='calc',
  pseudo_dir='/storage/coda1/p-amedford6/0/shared/rich_project_chbe-medford/medford-share/data/pseudos_module/espresso/nninc/pbe/van',
  outdir='.',
  tefield=.true.,
  dipfield=.true.,
  tprnfor=.true.,
  disk_io='none',
/
&SYSTEM
  ibrav=0,
  celldm(1)=1.8897261245650618d0,
  nat=55,
  ntyp=5,
  ecutwfc=29.39945797996531d00,
  ecutrho=293.9945797996531d00,
  nbnd=211,
  occupations='smearing',
  smearing='fd',
  degauss=0.007349864494991328d00,
  input_dft='BEEF-vdW',
  edir=3,
  emaxpos=0.9914839886258175d00,
  eopreg=0.025d00,
  eamp=0.0d00,
  nosym=.false.,
  noinv=.false.,
  nosym_evc=.false.,
  no_t_rev=.false.,
/
&ELECTRONS
  diagonalization='david',
  conv_thr=7.349864494991327e-08,
  mixing_beta=0.05d00,
  electron_maxstep=1000,
  startingwfc='atomic',
/
&IONS
  ion_dynamics='ipi',
/
&CELL
  cell_dynamics='ipi',
/
CELL_PARAMETERS alat
    6.579727202290808d0     0.000000000000000d0     0.000000000000000d0
   -0.000775132442404d0     5.961596420607155d0     0.000000000000000d0
    0.000000000000000d0    -0.000000000000000d0    25.155947251439940d0
ATOMIC_SPECIES
Ti1 47.867d00 Ti.UPF
O1 15.999d00 O.UPF
C1 12.011d00 C.UPF
H1 1.008d00 H.UPF
N1 14.007d00 N.UPF
ATOMIC_POSITIONS {crystal}
Ti1      0.000123603383822d0     0.499897385958537d0     0.238512187198856d0
Ti1      0.500142521004230d0     0.250038178055688d0     0.238522014307695d0
O1       0.000095322930372d0     0.000084774873452d0     0.317452257936818d0
O1       0.500112315057126d0     0.000084209992886d0     0.290342007718641d0
O1       0.698270105622955d0     0.250236102495782d0     0.369213011426276d0
O1       0.301995368073695d0     0.249987007385122d0     0.369214717028816d0
Ti1      0.501921944242864d0     0.503451156676879d0     0.363968031285855d0
Ti1      0.002964409361240d0     0.249887600262014d0     0.368062295801014d0
O1       0.497330281912818d0     0.001539729986125d0     0.452709885065887d0
O1       0.999418058720015d0     0.000316409610897d0     0.422221502690577d0
O1       0.192842212258718d0     0.255202501799475d0     0.503036399991804d0
O1       0.801703386211702d0     0.255019140997056d0     0.502714192637807d0
Ti1      0.995893132074714d0     0.503186591738747d0     0.496404089828050d0
Ti1      0.495013085304352d0     0.254817957262230d0     0.498088375390884d0
O1       0.995522724609509d0     0.023956594474029d0     0.584937991715155d0
O1       0.496929661104306d0     0.007261145847961d0     0.556663400056332d0
O1       0.687071355210626d0     0.251928740715903d0     0.646120079119871d0
O1       0.305431352486667d0     0.251714361813177d0     0.645498498876367d0
Ti1      0.496205801950947d0     0.502073106617087d0     0.627213086357965d0
Ti1      0.996064396415462d0     0.238784622236097d0     0.641493977906497d0
O1       0.500093721748991d0     0.000084921243389d0     0.186906639369252d0
O1       0.997019426342983d0     0.970845139810497d0     0.685833068190968d0
O1       0.198268504441574d0     0.250236248865719d0     0.238667392858710d0
O1       0.801993766892314d0     0.249987153755059d0     0.238669098461250d0
Ti1      0.000123603383822d0     0.999897385958537d0     0.238512187198856d0
Ti1      0.500142521004230d0     0.750038178055688d0     0.238522014307695d0
O1       0.000095322930372d0     0.500084774873452d0     0.317452257936818d0
O1       0.500112315057126d0     0.500084209992886d0     0.290342007718641d0
O1       0.698270105622955d0     0.750236102495782d0     0.369213011426276d0
O1       0.301995368073695d0     0.749987007385122d0     0.369214717028816d0
Ti1      0.502617921226215d0     0.003120813545333d0     0.363950267874266d0
Ti1      0.002969005323761d0     0.751240543765676d0     0.368020642072712d0
O1       0.497366796074924d0     0.505471678793665d0     0.452542862789771d0
O1       0.999245741581947d0     0.502752494449071d0     0.422537184670472d0
O1       0.192265883945554d0     0.752674083111566d0     0.505445708502341d0
O1       0.802459332294093d0     0.752800227222399d0     0.505168868225144d0
Ti1      0.995641282724655d0     0.005862709954271d0     0.496863469786240d0
Ti1      0.495114793139971d0     0.754579292504071d0     0.498601193429735d0
O1       0.995848962821307d0     0.492047991229129d0     0.597758949178476d0
O1       0.497371184958347d0     0.498785260683970d0     0.555982717036816d0
O1       0.687105876849954d0     0.750545514453321d0     0.641037057667953d0
O1       0.305175852132775d0     0.750162660726907d0     0.640852061772786d0
Ti1      0.495934428435629d0     0.002833374995111d0     0.628231278206613d0
Ti1      0.995020090131876d0     0.781757311590134d0     0.628393528545499d0
O1       0.500093721748991d0     0.500084921243389d0     0.186906639369252d0
O1       0.198268504441574d0     0.750236248865719d0     0.238667392858710d0
O1       0.801993766892315d0     0.749987153755059d0     0.238669098461250d0
C1       0.991619041357200d0     0.365829305324309d0     0.773039470617311d0
O1       0.002307508169128d0     0.460261744174340d0     0.720246356835454d0
H1       0.989305255926080d0     0.184904123296329d0     0.768353071687576d0
H1       0.009283914138363d0     0.623094252682159d0     0.723403848616464d0
H1       0.124919005147708d0     0.415705339063102d0     0.796061337882383d0
H1       0.853289285847856d0     0.421529916667980d0     0.793038757479857d0
N1       0.495934428435629d0     0.002833374995111d0     0.759412981165984d0
N1       0.495934428435629d0     0.002833374995111d0     0.714493980950823d0
K_POINTS automatic
4 4 1  0 0 0 
