&CONTROL
  calculation='relax',
  prefix='calc',
  pseudo_dir='/storage/coda1/p-amedford6/0/shared/rich_project_chbe-medford/medford-share/data/pseudos_module/espresso/nninc/pbe/van',
  outdir='.',
  tefield=.true.,
  dipfield=.true.,
  tprnfor=.true.,
  disk_io='none',
/
&SYSTEM
  ibrav=0,
  celldm(1)=1.8897261245650618d0,
  nat=55,
  ntyp=5,
  ecutwfc=29.39945797996531d00,
  ecutrho=293.9945797996531d00,
  nbnd=211,
  occupations='smearing',
  smearing='fd',
  degauss=0.007349864494991328d00,
  input_dft='BEEF-vdW',
  edir=3,
  emaxpos=0.9849712956082332d00,
  eopreg=0.025d00,
  eamp=0.0d00,
  nosym=.false.,
  noinv=.false.,
  nosym_evc=.false.,
  no_t_rev=.false.,
/
&ELECTRONS
  diagonalization='david',
  conv_thr=7.349864494991327e-08,
  mixing_beta=0.05d00,
  electron_maxstep=1000,
  startingwfc='atomic',
/
&IONS
  ion_dynamics='ipi',
/
&CELL
  cell_dynamics='ipi',
/
CELL_PARAMETERS alat
    6.579727202290808d0     0.000000000000000d0     0.000000000000000d0
   -0.000775132442404d0     5.961596420607155d0     0.000000000000000d0
    0.000000000000000d0    -0.000000000000000d0    25.155947251439940d0
ATOMIC_SPECIES
Ti1 47.867d00 Ti.UPF
O1 15.999d00 O.UPF
C1 12.011d00 C.UPF
H1 1.008d00 H.UPF
N1 14.007d00 N.UPF
ATOMIC_POSITIONS {crystal}
Ti1      0.000123603383822d0     0.499897385958537d0     0.238512187198856d0
Ti1      0.500142521004230d0     0.250038178055688d0     0.238522014307695d0
O1       0.000095322930372d0     0.000084774873452d0     0.317452257936818d0
O1       0.500112315057126d0     0.000084209992886d0     0.290342007718641d0
O1       0.698270105622955d0     0.250236102495782d0     0.369213011426276d0
O1       0.301995368073695d0     0.249987007385122d0     0.369214717028816d0
Ti1      0.506379734273276d0     0.501212367403069d0     0.363935570930262d0
Ti1      0.007134004118529d0     0.254423508204316d0     0.368532395356525d0
O1       0.498437501195782d0     0.002589344692023d0     0.451608814773703d0
O1       0.999537263178333d0     0.001065285244817d0     0.421651965894189d0
O1       0.194799842973696d0     0.252205739707834d0     0.502917026664724d0
O1       0.802211813423708d0     0.252576244011543d0     0.502851976131584d0
Ti1      0.995463902388542d0     0.504117603823800d0     0.498515011580875d0
Ti1      0.494524013131190d0     0.253579889191607d0     0.496865781205139d0
O1       0.998213223656397d0     0.000144685138922d0     0.583695544107677d0
O1       0.499138364516982d0     0.001625388516884d0     0.556057675330887d0
O1       0.689839538593193d0     0.256595811137280d0     0.642568435860330d0
O1       0.306707803359566d0     0.255116357199958d0     0.642663383295739d0
Ti1      0.497282178383254d0     0.501790447819225d0     0.624822121805823d0
Ti1      0.000055425698222d0     0.224992247585634d0     0.635548287379143d0
O1       0.500093721748991d0     0.000084921243389d0     0.186906639369252d0
O1       0.998423088843573d0     0.002618865066948d0     0.684451324945180d0
O1       0.198268504441574d0     0.250236248865719d0     0.238667392858710d0
O1       0.801993766892314d0     0.249987153755059d0     0.238669098461250d0
Ti1      0.000123603383822d0     0.999897385958537d0     0.238512187198856d0
Ti1      0.500142521004230d0     0.750038178055688d0     0.238522014307695d0
O1       0.000095322930372d0     0.500084774873452d0     0.317452257936818d0
O1       0.500112315057126d0     0.500084209992886d0     0.290342007718641d0
O1       0.698270105622955d0     0.750236102495782d0     0.369213011426276d0
O1       0.301995368073695d0     0.749987007385122d0     0.369214717028816d0
Ti1      0.504807492319468d0     0.001185831797356d0     0.363850911876741d0
Ti1      0.007054354530789d0     0.752216397775726d0     0.368346126173001d0
O1       0.498349170168290d0     0.502124503392622d0     0.451298121498395d0
O1       0.999640991447180d0     0.500867642199319d0     0.422384994731048d0
O1       0.194758503870913d0     0.752607456686435d0     0.502788178844680d0
O1       0.802244979023733d0     0.752305212429724d0     0.502684157287208d0
Ti1      0.996065743598784d0     0.004653100544250d0     0.496230396741436d0
Ti1      0.494451282910009d0     0.753009393245258d0     0.496898254474273d0
O1       0.998008187186055d0     0.503595008546273d0     0.590454669170269d0
O1       0.497871170127570d0     0.502437937642241d0     0.553942753816089d0
O1       0.688806383213826d0     0.746598794693237d0     0.643695986477549d0
O1       0.305885580379519d0     0.748881423038209d0     0.642346436039910d0
Ti1      0.499985364778811d0     0.002074526050628d0     0.627198902824883d0
Ti1      0.002447968621386d0     0.763035226520424d0     0.631617120371776d0
O1       0.500093721748991d0     0.500084921243389d0     0.186906639369252d0
O1       0.198268504441574d0     0.750236248865719d0     0.238667392858710d0
O1       0.801993766892315d0     0.749987153755059d0     0.238669098461250d0
C1       0.102917893874897d0     0.512389224007056d0     0.752095317922855d0
O1       0.982330815988263d0     0.505284761081482d0     0.703782604295272d0
H1       0.260682835292509d0     0.522704621445366d0     0.739895628368937d0
H1       0.838744516228625d0     0.516297876607975d0     0.712594611599414d0
H1       0.062221371944895d0     0.661250092693961d0     0.774842202721449d0
H1       0.077124259203900d0     0.358961346105593d0     0.774709610354407d0
N1       0.586080194353924d0     0.991021788784697d0     0.783035951847214d0
N1       0.597998639434632d0     0.170894881617526d0     0.772821393441188d0
K_POINTS automatic
4 4 1  0 0 0 
