&CONTROL
  calculation='relax',
  prefix='calc',
  pseudo_dir='/storage/coda1/p-amedford6/0/shared/rich_project_chbe-medford/medford-share/data/pseudos_module/espresso/nninc/pbe/van',
  outdir='.',
  tefield=.true.,
  dipfield=.true.,
  tprnfor=.true.,
  disk_io='none',
/
&SYSTEM
  ibrav=0,
  celldm(1)=1.8897261245650618d0,
  nat=53,
  ntyp=5,
  ecutwfc=29.39945797996531d00,
  ecutrho=293.9945797996531d00,
  nbnd=208,
  occupations='smearing',
  smearing='fd',
  degauss=0.007349864494991328d00,
  input_dft='BEEF-vdW',
  edir=3,
  emaxpos=0.965374976551721d00,
  eopreg=0.025d00,
  eamp=0.0d00,
  nosym=.false.,
  noinv=.false.,
  nosym_evc=.false.,
  no_t_rev=.false.,
/
&ELECTRONS
  diagonalization='david',
  conv_thr=7.349864494991327e-08,
  mixing_beta=0.05d00,
  electron_maxstep=1000,
  startingpot='file',
  startingwfc='atomic',
/
&IONS
  ion_dynamics='ipi',
/
&CELL
  cell_dynamics='ipi',
/
CELL_PARAMETERS alat
    6.579727202290808d0     0.000000000000000d0     0.000000000000000d0
   -0.000775132442404d0     5.961596420607155d0     0.000000000000000d0
    0.000000000000000d0    -0.000000000000000d0    25.155947251439940d0
ATOMIC_SPECIES
Ti1 47.867d00 Ti.UPF
O1 15.999d00 O.UPF
N1 14.007d00 N.UPF
C1 12.011d00 C.UPF
H1 1.008d00 H.UPF
ATOMIC_POSITIONS {crystal}
Ti1      0.000123603383822d0     0.499897385958536d0     0.238512187198856d0
Ti1      0.500142521004230d0     0.250038178055688d0     0.238522014307695d0
O1       0.000095322930372d0     0.000084774873452d0     0.317452257936818d0
O1       0.500112315057126d0     0.000084209992886d0     0.290342007718641d0
O1       0.698270105622955d0     0.250236102495782d0     0.369213011426276d0
O1       0.301995368073695d0     0.249987007385122d0     0.369214717028816d0
Ti1      0.500198167309398d0     0.485761668506182d0     0.364758343030283d0
Ti1      0.000261424674789d0     0.248709163236136d0     0.368424970923767d0
O1       0.498879366502560d0     0.997382671120779d0     0.449496085062783d0
O1       0.001882992193933d0     0.999479849154423d0     0.422099495650131d0
O1       0.193614422004154d0     0.250377264443747d0     0.502492379339059d0
O1       0.804059112349577d0     0.250779081722133d0     0.502065988027996d0
Ti1      0.999240192412884d0     0.479548522112249d0     0.502430550406971d0
Ti1      0.499136851469547d0     0.218237596414379d0     0.503884853517159d0
O1       0.998859197276247d0     0.000383084604355d0     0.581950925884377d0
O1       0.499761736381953d0     0.009179875869365d0     0.553637350667775d0
O1       0.688168946099103d0     0.260820907071968d0     0.639199370856241d0
O1       0.302310883486193d0     0.259087049442219d0     0.639868361665924d0
Ti1      0.497195122922026d0     0.504877357293350d0     0.622093157293471d0
Ti1      0.003256810005220d0     0.227844333896358d0     0.636647177335202d0
O1       0.500093721748991d0     0.000084921243389d0     0.186906639369252d0
O1       0.992227301082023d0     0.997084586648208d0     0.681385209471238d0
O1       0.198268504441574d0     0.250236248865719d0     0.238667392858710d0
O1       0.801993766892314d0     0.249987153755059d0     0.238669098461250d0
Ti1      0.000123603383822d0     0.999897385958536d0     0.238512187198856d0
Ti1      0.500142521004230d0     0.750038178055688d0     0.238522014307695d0
O1       0.000095322930372d0     0.500084774873452d0     0.317452257936818d0
O1       0.500112315057126d0     0.500084209992886d0     0.290342007718641d0
O1       0.698270105622955d0     0.750236102495782d0     0.369213011426276d0
O1       0.301995368073695d0     0.749987007385122d0     0.369214717028816d0
Ti1      0.500001644927041d0     0.985370751416071d0     0.364779031055315d0
Ti1      0.000183276761494d0     0.748948988039575d0     0.368476322807288d0
O1       0.498707179506841d0     0.505887294343003d0     0.448172447225335d0
O1       0.001460782485842d0     0.499964783615161d0     0.422656139091726d0
O1       0.194655336345002d0     0.751414525890015d0     0.502322137386876d0
O1       0.803055221631694d0     0.751261206234221d0     0.501850680451094d0
Ti1      0.999021081408023d0     0.980431539904610d0     0.497972487455263d0
Ti1      0.499053592564952d0     0.737225719995210d0     0.493413305796838d0
O1       0.997257699105521d0     0.503195295367660d0     0.584720564084024d0
O1       0.497568478552419d0     0.500995923179395d0     0.551664034320082d0
O1       0.687966919256257d0     0.742994012589343d0     0.638128114566434d0
O1       0.302831462991874d0     0.745741208200800d0     0.638576125615203d0
Ti1      0.503597667767459d0     0.004545170408462d0     0.648242319378219d0
Ti1      0.004569789078366d0     0.759147595326627d0     0.628883985433819d0
O1       0.500093721748991d0     0.500084921243389d0     0.186906639369252d0
O1       0.198268504441574d0     0.750236248865719d0     0.238667392858710d0
O1       0.801993766892315d0     0.749987153755059d0     0.238669098461250d0
N1       0.977035023641095d0     0.498870254828682d0     0.704017104115448d0
C1       0.099391002214803d0     0.506174221484251d0     0.743843313734189d0
H1       0.262858447704218d0     0.493376058520378d0     0.734699991421244d0
H1       0.827001826710262d0     0.512936927634731d0     0.714407833943686d0
O1       0.511196279001383d0     0.000177594225259d0     0.720279158891991d0
H1       0.631948350158510d0     0.006723575721964d0     0.742304320172908d0
K_POINTS automatic
4 4 1  0 0 0 
