&CONTROL
  calculation='relax',
  prefix='calc',
  pseudo_dir='/storage/coda1/p-amedford6/0/shared/rich_project_chbe-medford/medford-share/data/pseudos_module/espresso/nninc/pbe/van',
  outdir='.',
  tefield=.true.,
  dipfield=.true.,
  tprnfor=.true.,
  disk_io='none',
/
&SYSTEM
  ibrav=0,
  celldm(1)=1.8897261245650618d0,
  nat=55,
  ntyp=5,
  ecutwfc=29.39945797996531d00,
  ecutrho=293.9945797996531d00,
  nbnd=206,
  occupations='smearing',
  smearing='fd',
  degauss=0.007349864494991328d00,
  input_dft='BEEF-vdW',
  edir=3,
  emaxpos=0.0003375876986830839d00,
  eopreg=0.025d00,
  eamp=0.0d00,
  nosym=.false.,
  noinv=.false.,
  nosym_evc=.false.,
  no_t_rev=.false.,
/
&ELECTRONS
  diagonalization='david',
  conv_thr=7.349864494991327e-08,
  mixing_beta=0.05d00,
  electron_maxstep=1000,
  startingwfc='atomic',
/
&IONS
  ion_dynamics='ipi',
/
&CELL
  cell_dynamics='ipi',
/
CELL_PARAMETERS alat
    6.579727202290808d0     0.000000000000000d0     0.000000000000000d0
   -0.000775132442404d0     5.961596420607155d0     0.000000000000000d0
    0.000000000000000d0    -0.000000000000000d0    25.155947251439940d0
ATOMIC_SPECIES
Ti1 47.867d00 Ti.UPF
O1 15.999d00 O.UPF
N1 14.007d00 N.UPF
C1 12.011d00 C.UPF
H1 1.008d00 H.UPF
ATOMIC_POSITIONS {crystal}
Ti1      0.000123603383822d0     0.499897385958536d0     0.238512187198856d0
Ti1      0.500142521004230d0     0.250038178055688d0     0.238522014307695d0
O1       0.000095322930372d0     0.000084774873452d0     0.317452257936818d0
O1       0.500112315057126d0     0.000084209992886d0     0.290342007718641d0
O1       0.698270105622955d0     0.250236102495782d0     0.369213011426276d0
O1       0.301995368073695d0     0.249987007385122d0     0.369214717028816d0
Ti1      0.500198167309398d0     0.485761668506182d0     0.364758343030283d0
Ti1      0.000261424674789d0     0.248709163236136d0     0.368424970923767d0
O1       0.502623139320382d0     0.997178624234764d0     0.453625875727033d0
O1       0.001882992193933d0     0.999479849154423d0     0.422099495650131d0
O1       0.199026721735815d0     0.250571858870317d0     0.503964014161134d0
O1       0.807427946674646d0     0.249923220691529d0     0.503921160005065d0
Ti1      0.002718948809699d0     0.497099136362328d0     0.496641978035059d0
Ti1      0.503446669811230d0     0.246649051526463d0     0.499015311326078d0
O1       0.002854899605360d0     0.002963285601938d0     0.583020746403026d0
O1       0.504036266064833d0     0.000165944159418d0     0.559052504156980d0
O1       0.699503922525662d0     0.251368485026312d0     0.647527483882327d0
O1       0.307613751928859d0     0.253006461040453d0     0.645721319944307d0
Ti1      0.506358297582614d0     0.497511115671428d0     0.628581496427623d0
Ti1      0.006048502405596d0     0.228784098234644d0     0.633647068469002d0
O1       0.500093721748991d0     0.000084921243389d0     0.186906639369252d0
O1       0.007030676752662d0     0.997361769192198d0     0.691829564461853d0
O1       0.198268504441574d0     0.250236248865719d0     0.238667392858710d0
O1       0.801993766892314d0     0.249987153755059d0     0.238669098461250d0
Ti1      0.000123603383822d0     0.999897385958536d0     0.238512187198856d0
Ti1      0.500142521004230d0     0.750038178055688d0     0.238522014307695d0
O1       0.000095322930372d0     0.500084774873452d0     0.317452257936818d0
O1       0.500112315057126d0     0.500084209992886d0     0.290342007718641d0
O1       0.698270105622955d0     0.750236102495782d0     0.369213011426276d0
O1       0.301995368073695d0     0.749987007385122d0     0.369214717028816d0
Ti1      0.500001644927041d0     0.985370751416071d0     0.364779031055315d0
Ti1      0.000183276761494d0     0.748948988039575d0     0.368476322807288d0
O1       0.502546746882801d0     0.498389126500611d0     0.453236683907894d0
O1       0.001460782485842d0     0.499964783615161d0     0.422656139091726d0
O1       0.198866992071660d0     0.747133855545975d0     0.504678208469659d0
O1       0.807651650735813d0     0.747706521183600d0     0.504446863635161d0
Ti1      0.003432805699710d0     0.997426040279148d0     0.496911472079803d0
Ti1      0.503285435834533d0     0.745562778147809d0     0.499391982003588d0
O1       0.999885661640429d0     0.496992686116482d0     0.595797989759429d0
O1       0.505759628732798d0     0.497938389229922d0     0.557326203134387d0
O1       0.700257694436880d0     0.745364736584158d0     0.646875015303292d0
O1       0.307953588333292d0     0.744430746871967d0     0.645007848138575d0
Ti1      0.504254143847704d0     0.998844757902096d0     0.630398302148019d0
Ti1      0.007481879554123d0     0.768325896462180d0     0.631158087417212d0
O1       0.500093721748991d0     0.500084921243389d0     0.186906639369252d0
O1       0.198268504441574d0     0.750236248865719d0     0.238667392858710d0
O1       0.801993766892315d0     0.749987153755059d0     0.238669098461250d0
N1       0.859770908423624d0     0.705706052009262d0     0.777976705432720d0
C1       0.055273892626605d0     0.585274956980224d0     0.781209429097842d0
H1       0.141465731924852d0     0.613943666234223d0     0.744799581034000d0
H1       0.144627985714393d0     0.655652417301098d0     0.813768536028114d0
H1       0.040704964118390d0     0.404114228818861d0     0.787408391594190d0
H1       0.925330732899191d0     0.973604209723458d0     0.723736747489825d0
H1       0.772721689555774d0     0.641019445230946d0     0.748283532112007d0
H1       0.779223912535781d0     0.684325786019229d0     0.812055900038037d0
K_POINTS automatic
4 4 1  0 0 0 
