&CONTROL
  calculation='relax',
  prefix='calc',
  pseudo_dir='/storage/coda1/p-amedford6/0/shared/rich_project_chbe-medford/medford-share/data/pseudos_module/espresso/nninc/pbe/van',
  outdir='.',
  tefield=.true.,
  dipfield=.true.,
  tprnfor=.true.,
  disk_io='none',
/
&SYSTEM
  ibrav=0,
  celldm(1)=1.8897261245650618d0,
  nat=57,
  ntyp=5,
  ecutwfc=29.39945797996531d00,
  ecutrho=293.9945797996531d00,
  nbnd=212,
  occupations='smearing',
  smearing='fd',
  degauss=0.007349864494991328d00,
  input_dft='BEEF-vdW',
  edir=3,
  emaxpos=0.9910885939888452d00,
  eopreg=0.025d00,
  eamp=0.0d00,
  nosym=.false.,
  noinv=.false.,
  nosym_evc=.false.,
  no_t_rev=.false.,
/
&ELECTRONS
  diagonalization='david',
  conv_thr=7.349864494991327e-08,
  mixing_beta=0.05d00,
  electron_maxstep=1000,
  startingpot='file',
  startingwfc='atomic',
/
&IONS
  ion_dynamics='ipi',
/
&CELL
  cell_dynamics='ipi',
/
CELL_PARAMETERS alat
    6.579727202290808d0     0.000000000000000d0     0.000000000000000d0
   -0.000775132442404d0     5.961596420607155d0     0.000000000000000d0
    0.000000000000000d0    -0.000000000000000d0    25.155947251439940d0
ATOMIC_SPECIES
Ti1 47.867d00 Ti.UPF
O1 15.999d00 O.UPF
N1 14.007d00 N.UPF
C1 12.011d00 C.UPF
H1 1.008d00 H.UPF
ATOMIC_POSITIONS {crystal}
Ti1      0.000123603383822d0     0.499897385958536d0     0.238512187198856d0
Ti1      0.500142521004230d0     0.250038178055688d0     0.238522014307695d0
O1       0.000095322930372d0     0.000084774873452d0     0.317452257936818d0
O1       0.500112315057126d0     0.000084209992886d0     0.290342007718641d0
O1       0.698270105622955d0     0.250236102495782d0     0.369213011426276d0
O1       0.301995368073695d0     0.249987007385122d0     0.369214717028816d0
Ti1      0.500198167309398d0     0.485761668506182d0     0.364758343030283d0
Ti1      0.000261424674789d0     0.248709163236136d0     0.368424970923767d0
O1       0.503501559317348d0     0.995351508806341d0     0.451948430475191d0
O1       0.001882992193933d0     0.999479849154423d0     0.422099495650131d0
O1       0.199642666594720d0     0.247989448602462d0     0.502668696080761d0
O1       0.808157353690910d0     0.248279120657240d0     0.502830854024639d0
Ti1      0.005839506285166d0     0.496064129485369d0     0.497784402541649d0
Ti1      0.507720820442800d0     0.243770122929088d0     0.497875479787533d0
O1       0.003636701669807d0     0.006147724104273d0     0.583933768491999d0
O1       0.505545054044578d0     0.999230482904268d0     0.557042527516706d0
O1       0.696812672516614d0     0.248176355771535d0     0.643420184075840d0
O1       0.312198795331239d0     0.250070940217362d0     0.643737470021871d0
Ti1      0.502031758711198d0     0.491856937682299d0     0.624412667604415d0
Ti1      0.001369234007785d0     0.229065318828320d0     0.638109490810144d0
O1       0.500093721748991d0     0.000084921243389d0     0.186906639369252d0
O1       0.009021459175032d0     0.978266910521532d0     0.684883229793604d0
O1       0.198268504441574d0     0.250236248865719d0     0.238667392858710d0
O1       0.801993766892314d0     0.249987153755059d0     0.238669098461250d0
Ti1      0.000123603383822d0     0.999897385958536d0     0.238512187198856d0
Ti1      0.500142521004230d0     0.750038178055688d0     0.238522014307695d0
O1       0.000095322930372d0     0.500084774873452d0     0.317452257936818d0
O1       0.500112315057126d0     0.500084209992886d0     0.290342007718641d0
O1       0.698270105622955d0     0.750236102495782d0     0.369213011426276d0
O1       0.301995368073695d0     0.749987007385122d0     0.369214717028816d0
Ti1      0.500001644927041d0     0.985370751416071d0     0.364779031055315d0
Ti1      0.000183276761494d0     0.748948988039575d0     0.368476322807288d0
O1       0.503767630715141d0     0.497530072817641d0     0.451749531648522d0
O1       0.001460782485842d0     0.499964783615161d0     0.422656139091726d0
O1       0.199316301977220d0     0.747420240690080d0     0.503985484007881d0
O1       0.808253243195160d0     0.747070690402938d0     0.504019272415837d0
Ti1      0.006477259924533d0     0.997893020252485d0     0.496884814951570d0
Ti1      0.507740320170237d0     0.745269175407788d0     0.497772014080499d0
O1       0.005107296398818d0     0.488941312072632d0     0.593607974832657d0
O1       0.503969903114529d0     0.493789166243164d0     0.553679453303938d0
O1       0.697922901479932d0     0.735846765618791d0     0.640794764468463d0
O1       0.312248876667502d0     0.738353234165484d0     0.639396167533883d0
Ti1      0.507267479279712d0     0.991626267388413d0     0.629641410128859d0
Ti1      0.008192599923358d0     0.768565244791397d0     0.629733986168274d0
O1       0.500093721748991d0     0.500084921243389d0     0.186906639369252d0
O1       0.198268504441574d0     0.750236248865719d0     0.238667392858710d0
O1       0.801993766892315d0     0.749987153755059d0     0.238669098461250d0
N1       0.992303198445011d0     0.466363476432369d0     0.722953436205277d0
C1       0.147854906671829d0     0.465389568466262d0     0.753606557538087d0
H1       0.139171028888362d0     0.514447010767384d0     0.795270548608438d0
H1       0.292238916899746d0     0.417123740395876d0     0.736975358924170d0
N1       0.803421437935417d0     0.520232275662505d0     0.744763854159222d0
H1       0.819453159654318d0     0.610028350174092d0     0.779037731063147d0
H1       0.727515051342079d0     0.614029649472929d0     0.717612768106493d0
O1       0.494230496154299d0     0.975449123663303d0     0.729044164492416d0
H1       0.569455242693517d0     0.111318148518871d0     0.737475633143622d0
H1       0.350367020375644d0     0.011314593114543d0     0.732236427700100d0
K_POINTS automatic
4 4 1  0 0 0 
