&CONTROL
  calculation='relax',
  prefix='calc',
  pseudo_dir='/storage/coda1/p-amedford6/0/shared/rich_project_chbe-medford/medford-share/data/pseudos_module/espresso/nninc/pbe/van',
  outdir='.',
  tefield=.true.,
  dipfield=.true.,
  tprnfor=.true.,
  disk_io='none',
/
&SYSTEM
  ibrav=0,
  celldm(1)=1.8897261245650618d0,
  nat=53,
  ntyp=5,
  ecutwfc=29.39945797996531d00,
  ecutrho=293.9945797996531d00,
  nbnd=207,
  occupations='smearing',
  smearing='fd',
  degauss=0.007349864494991328d00,
  input_dft='BEEF-vdW',
  edir=3,
  emaxpos=0.9738116137170106d00,
  eopreg=0.025d00,
  eamp=0.0d00,
  nosym=.false.,
  noinv=.false.,
  nosym_evc=.false.,
  no_t_rev=.false.,
/
&ELECTRONS
  diagonalization='david',
  conv_thr=7.349864494991327e-08,
  mixing_beta=0.05d00,
  electron_maxstep=1000,
  startingpot='file',
  startingwfc='atomic',
/
&IONS
  ion_dynamics='ipi',
/
&CELL
  cell_dynamics='ipi',
/
CELL_PARAMETERS alat
    6.579727202290808d0     0.000000000000000d0     0.000000000000000d0
   -0.000775132442404d0     5.961596420607155d0     0.000000000000000d0
    0.000000000000000d0    -0.000000000000000d0    25.155947251439940d0
ATOMIC_SPECIES
Ti1 47.867d00 Ti.UPF
O1 15.999d00 O.UPF
N1 14.007d00 N.UPF
C1 12.011d00 C.UPF
H1 1.008d00 H.UPF
ATOMIC_POSITIONS {crystal}
Ti1      0.000123603383822d0     0.499897385958536d0     0.238512187198856d0
Ti1      0.500142521004230d0     0.250038178055688d0     0.238522014307695d0
O1       0.000095322930372d0     0.000084774873452d0     0.317452257936818d0
O1       0.500112315057126d0     0.000084209992886d0     0.290342007718641d0
O1       0.698270105622955d0     0.250236102495782d0     0.369213011426276d0
O1       0.301995368073695d0     0.249987007385122d0     0.369214717028816d0
Ti1      0.500198167309398d0     0.485761668506182d0     0.364758343030283d0
Ti1      0.000261424674789d0     0.248709163236136d0     0.368424970923767d0
O1       0.500324882422299d0     0.997382842365624d0     0.449966221109789d0
O1       0.001882992193933d0     0.999479849154423d0     0.422099495650131d0
O1       0.199174855267408d0     0.245749724941262d0     0.502634845998418d0
O1       0.806254924475706d0     0.248363806056224d0     0.502118786812963d0
Ti1      0.993064314329356d0     0.505384460878619d0     0.504455717860137d0
Ti1      0.489517799809677d0     0.246557619406788d0     0.495770706219179d0
O1       0.995875723422673d0     0.992126686237757d0     0.583178523257574d0
O1       0.505308947778641d0     0.999459178557098d0     0.552137147818636d0
O1       0.690894200418859d0     0.255385433657078d0     0.641058023009600d0
O1       0.311436182341213d0     0.247034674150623d0     0.634186894186291d0
Ti1      0.495386511965501d0     0.501998859937601d0     0.623264503750974d0
Ti1      0.004426817914002d0     0.227199395170694d0     0.627020274143456d0
O1       0.500093721748991d0     0.000084921243389d0     0.186906639369252d0
O1       0.008510757791793d0     0.007571634710691d0     0.684181265452977d0
O1       0.198268504441574d0     0.250236248865719d0     0.238667392858710d0
O1       0.801993766892314d0     0.249987153755059d0     0.238669098461250d0
Ti1      0.000123603383822d0     0.999897385958536d0     0.238512187198856d0
Ti1      0.500142521004230d0     0.750038178055688d0     0.238522014307695d0
O1       0.000095322930372d0     0.500084774873452d0     0.317452257936818d0
O1       0.500112315057126d0     0.500084209992886d0     0.290342007718641d0
O1       0.698270105622955d0     0.750236102495782d0     0.369213011426276d0
O1       0.301995368073695d0     0.749987007385122d0     0.369214717028816d0
Ti1      0.500001644927041d0     0.985370751416071d0     0.364779031055315d0
Ti1      0.000183276761494d0     0.748948988039575d0     0.368476322807288d0
O1       0.499926400358419d0     0.498160213476322d0     0.450038061374626d0
O1       0.001460782485842d0     0.499964783615161d0     0.422656139091726d0
O1       0.198717072640983d0     0.747572804018376d0     0.502509201027929d0
O1       0.805801414871679d0     0.747907722621270d0     0.502002447841694d0
Ti1      0.993047856019832d0     0.003401745786671d0     0.497835553235231d0
Ti1      0.489338111170712d0     0.746654183191746d0     0.495910350582542d0
O1       0.998404525141086d0     0.495209198851776d0     0.586530289361149d0
O1       0.502074899461149d0     0.498362029023401d0     0.551855141143420d0
O1       0.690479285542825d0     0.750371655725371d0     0.635989734599477d0
O1       0.315776927155064d0     0.752978788319782d0     0.637483029322828d0
Ti1      0.503385496025048d0     0.000445598061338d0     0.623662306743149d0
Ti1      0.989918791411242d0     0.754651989003578d0     0.648203798272383d0
O1       0.500093721748991d0     0.500084921243389d0     0.186906639369252d0
O1       0.198268504441574d0     0.750236248865719d0     0.238667392858710d0
O1       0.801993766892315d0     0.749987153755059d0     0.238669098461250d0
N1       0.070408774569259d0     0.500702901409107d0     0.707494153105337d0
C1       0.215613559664388d0     0.495139859933805d0     0.742173725834398d0
H1       0.357263335822884d0     0.445501269828396d0     0.721723284068167d0
N1       0.879950320452110d0     0.595186291894390d0     0.724596491300090d0
H1       0.895900692466386d0     0.671169082900709d0     0.760716588064769d0
H1       0.771126543760303d0     0.474148974752750d0     0.725139838518342d0
K_POINTS automatic
4 4 1  0 0 0 
