&CONTROL
  calculation='relax',
  prefix='calc',
  pseudo_dir='/storage/coda1/p-amedford6/0/shared/rich_project_chbe-medford/medford-share/data/pseudos_module/espresso/nninc/pbe/van',
  outdir='.',
  tefield=.true.,
  dipfield=.true.,
  tprnfor=.true.,
  disk_io='none',
/
&SYSTEM
  ibrav=0,
  celldm(1)=1.8897261245650618d0,
  nat=57,
  ntyp=5,
  ecutwfc=29.39945797996531d00,
  ecutrho=293.9945797996531d00,
  nbnd=212,
  occupations='smearing',
  smearing='fd',
  degauss=0.007349864494991328d00,
  input_dft='BEEF-vdW',
  edir=3,
  emaxpos=0.9943853614329612d00,
  eopreg=0.025d00,
  eamp=0.0d00,
  nosym=.false.,
  noinv=.false.,
  nosym_evc=.false.,
  no_t_rev=.false.,
/
&ELECTRONS
  diagonalization='david',
  conv_thr=7.349864494991327e-08,
  mixing_beta=0.05d00,
  electron_maxstep=1000,
  startingpot='file',
  startingwfc='atomic',
/
&IONS
  ion_dynamics='ipi',
/
&CELL
  cell_dynamics='ipi',
/
CELL_PARAMETERS alat
    6.579727202290808d0     0.000000000000000d0     0.000000000000000d0
   -0.000775132442404d0     5.961596420607155d0     0.000000000000000d0
    0.000000000000000d0    -0.000000000000000d0    25.155947251439940d0
ATOMIC_SPECIES
Ti1 47.867d00 Ti.UPF
O1 15.999d00 O.UPF
N1 14.007d00 N.UPF
C1 12.011d00 C.UPF
H1 1.008d00 H.UPF
ATOMIC_POSITIONS {crystal}
Ti1      0.000123603383822d0     0.499897385958536d0     0.238512187198856d0
Ti1      0.500142521004230d0     0.250038178055688d0     0.238522014307695d0
O1       0.000095322930372d0     0.000084774873452d0     0.317452257936818d0
O1       0.500112315057126d0     0.000084209992886d0     0.290342007718641d0
O1       0.698270105622955d0     0.250236102495782d0     0.369213011426276d0
O1       0.301995368073695d0     0.249987007385122d0     0.369214717028816d0
Ti1      0.500198167309398d0     0.485761668506182d0     0.364758343030283d0
Ti1      0.000261424674789d0     0.248709163236136d0     0.368424970923767d0
O1       0.500945112914438d0     0.996736272583624d0     0.448738674742136d0
O1       0.001882992193933d0     0.999479849154423d0     0.422099495650131d0
O1       0.198235694462471d0     0.247506336098126d0     0.502155065126737d0
O1       0.806896013966970d0     0.249453825631874d0     0.501113622791352d0
Ti1      0.998331059624005d0     0.521610937051882d0     0.504463548133965d0
Ti1      0.504173603436817d0     0.218905669330267d0     0.503272186059665d0
O1       0.994600577319264d0     0.003157447661205d0     0.581972331272040d0
O1       0.506182463256032d0     0.005953602204076d0     0.552566047527897d0
O1       0.692610832487117d0     0.267688720457592d0     0.637442044268629d0
O1       0.307865532072116d0     0.256682167531048d0     0.635035305516428d0
Ti1      0.493686378935373d0     0.511063223212887d0     0.622188882497775d0
Ti1      0.982312198670394d0     0.256114870247337d0     0.629887010984324d0
O1       0.500093721748991d0     0.000084921243389d0     0.186906639369252d0
O1       0.997612299679838d0     0.006533411366430d0     0.683094666338948d0
O1       0.198268504441574d0     0.250236248865719d0     0.238667392858710d0
O1       0.801993766892314d0     0.249987153755059d0     0.238669098461250d0
Ti1      0.000123603383822d0     0.999897385958536d0     0.238512187198856d0
Ti1      0.500142521004230d0     0.750038178055688d0     0.238522014307695d0
O1       0.000095322930372d0     0.500084774873452d0     0.317452257936818d0
O1       0.500112315057126d0     0.500084209992886d0     0.290342007718641d0
O1       0.698270105622955d0     0.750236102495782d0     0.369213011426276d0
O1       0.301995368073695d0     0.749987007385122d0     0.369214717028816d0
Ti1      0.500001644927041d0     0.985370751416071d0     0.364779031055315d0
Ti1      0.000183276761494d0     0.748948988039575d0     0.368476322807288d0
O1       0.500230072975072d0     0.505169288704184d0     0.447321647806733d0
O1       0.001460782485842d0     0.499964783615161d0     0.422656139091726d0
O1       0.197516935222101d0     0.750239668276984d0     0.502188162801205d0
O1       0.804779301241521d0     0.748230490734648d0     0.501412157620666d0
Ti1      0.005077891000875d0     0.021181727664143d0     0.501289958427648d0
Ti1      0.500114704776397d0     0.736668222671780d0     0.493269501294342d0
O1       0.996924502765178d0     0.498659190201771d0     0.582222088647273d0
O1       0.502693655887211d0     0.501709358957828d0     0.551216423358453d0
O1       0.689703844319000d0     0.743596882694380d0     0.640518399280161d0
O1       0.304617322730065d0     0.754042422579605d0     0.634382707300088d0
Ti1      0.484995680389192d0     0.009614873614577d0     0.644229178141777d0
Ti1      0.992524288619892d0     0.779551135361949d0     0.638704318182501d0
O1       0.500093721748991d0     0.500084921243389d0     0.186906639369252d0
O1       0.198268504441574d0     0.750236248865719d0     0.238667392858710d0
O1       0.801993766892315d0     0.749987153755059d0     0.238669098461250d0
N1       0.190185421479169d0     0.478932268879554d0     0.727468074796397d0
N1       0.016633275262175d0     0.493332541725215d0     0.694013291372714d0
C1       0.169043526382403d0     0.594210738099620d0     0.777978120408656d0
H1       0.041038655667076d0     0.530328460877131d0     0.801864083496670d0
H1       0.310329681014990d0     0.570349327617776d0     0.800576489301304d0
H1       0.147197287420023d0     0.772938626979284d0     0.771072203381322d0
H1       0.232661687066440d0     0.316038920550397d0     0.732028492068617d0
H1       0.887480110219320d0     0.486479162435549d0     0.716831128978335d0
O1       0.492793975773330d0     0.016806395674116d0     0.717840128540863d0
H1       0.604887474173535d0     0.940019861367765d0     0.735006403679184d0
K_POINTS automatic
4 4 1  0 0 0 
