&CONTROL
  calculation='relax',
  prefix='calc',
  pseudo_dir='/storage/coda1/p-amedford6/0/shared/rich_project_chbe-medford/medford-share/data/pseudos_module/espresso/nninc/pbe/van',
  outdir='.',
  tefield=.true.,
  dipfield=.true.,
  tprnfor=.true.,
  disk_io='none',
/
&SYSTEM
  ibrav=0,
  celldm(1)=1.8897261245650618d0,
  nat=53,
  ntyp=5,
  ecutwfc=29.39945797996531d00,
  ecutrho=293.9945797996531d00,
  nbnd=210,
  occupations='smearing',
  smearing='fd',
  degauss=0.007349864494991328d00,
  input_dft='BEEF-vdW',
  edir=3,
  emaxpos=0.9875041972657636d00,
  eopreg=0.025d00,
  eamp=0.0d00,
  nosym=.false.,
  noinv=.false.,
  nosym_evc=.false.,
  no_t_rev=.false.,
/
&ELECTRONS
  diagonalization='david',
  conv_thr=7.349864494991327e-08,
  mixing_beta=0.05d00,
  electron_maxstep=1000,
  startingwfc='atomic',
/
&IONS
  ion_dynamics='ipi',
/
&CELL
  cell_dynamics='ipi',
/
CELL_PARAMETERS alat
    6.579727202290808d0     0.000000000000000d0     0.000000000000000d0
   -0.000775132442404d0     5.961596420607155d0     0.000000000000000d0
    0.000000000000000d0    -0.000000000000000d0    25.155947251439940d0
ATOMIC_SPECIES
C1 12.011d00 C.UPF
H1 1.008d00 H.UPF
O1 15.999d00 O.UPF
Ti1 47.867d00 Ti.UPF
N1 14.007d00 N.UPF
ATOMIC_POSITIONS {crystal}
C1       0.866730889389589d0     0.530314050960008d0     0.748453588413280d0
H1       0.143517150635449d0     0.521017346047641d0     0.717285159835556d0
H1       0.812909761587234d0     0.694637284606978d0     0.759347010485707d0
O1       0.500093721748991d0     0.000084921243389d0     0.186906639369252d0
O1       0.500093721748991d0     0.500084921243389d0     0.186906639369252d0
O1       0.198268504441574d0     0.250236248865719d0     0.238667392858710d0
O1       0.198268504441574d0     0.750236248865719d0     0.238667392858710d0
O1       0.801993766892314d0     0.249987153755059d0     0.238669098461250d0
O1       0.801993766892315d0     0.749987153755059d0     0.238669098461250d0
O1       0.500112315057126d0     0.000084209992886d0     0.290342007718641d0
O1       0.500112315057126d0     0.500084209992886d0     0.290342007718641d0
O1       0.000095322930372d0     0.000084774873452d0     0.317452257936818d0
O1       0.000095322930372d0     0.500084774873452d0     0.317452257936818d0
O1       0.698270105622955d0     0.250236102495782d0     0.369213011426276d0
O1       0.698270105622955d0     0.750236102495782d0     0.369213011426276d0
O1       0.301995368073695d0     0.249987007385122d0     0.369214717028816d0
O1       0.301995368073695d0     0.749987007385122d0     0.369214717028816d0
O1       0.998638045257957d0     0.001175328641598d0     0.421485348254264d0
O1       0.998491367238741d0     0.501314084563029d0     0.422350271913870d0
O1       0.496646838351496d0     0.503268070211079d0     0.451674492866934d0
O1       0.496316058171788d0     0.003185793708156d0     0.451972099538837d0
O1       0.191817067485260d0     0.752985160226278d0     0.502725531179998d0
O1       0.191662283904359d0     0.253593553331621d0     0.502732868581192d0
O1       0.799651870507302d0     0.753383830954575d0     0.502840537899778d0
O1       0.799597928227433d0     0.253218446222924d0     0.502810495858497d0
O1       0.494555753891972d0     0.503600308095559d0     0.554503032748854d0
O1       0.493118611584302d0     0.003906277716966d0     0.556465831356327d0
O1       0.996830832750327d0     0.002825814320013d0     0.583015279715454d0
O1       0.996492590722843d0     0.504371085693775d0     0.590102274931842d0
O1       0.688072906261953d0     0.752396416968271d0     0.641332050665803d0
O1       0.687846991907102d0     0.257028715079734d0     0.642002425983821d0
O1       0.303725887021233d0     0.259494647946432d0     0.643372139963967d0
O1       0.304297200700526d0     0.749198992072109d0     0.643387920379001d0
O1       0.994751478581278d0     0.002454859787621d0     0.683247068725460d0
O1       0.003087129844762d0     0.507768496238842d0     0.705171329894023d0
Ti1      0.000123603383822d0     0.499897385958537d0     0.238512187198856d0
Ti1      0.000123603383822d0     0.999897385958537d0     0.238512187198856d0
Ti1      0.500142521004230d0     0.250038178055688d0     0.238522014307695d0
Ti1      0.500142521004230d0     0.750038178055688d0     0.238522014307695d0
Ti1      0.502361078791363d0     0.998702233221130d0     0.363886221434844d0
Ti1      0.507048259256489d0     0.498782878953198d0     0.364014540188574d0
Ti1      0.006056082369234d0     0.751694887693196d0     0.368351916004358d0
Ti1      0.006187042423377d0     0.254070995753324d0     0.368608616283928d0
Ti1      0.993728744773661d0     0.005611941998718d0     0.496174368105728d0
Ti1      0.493593180026856d0     0.753845645229172d0     0.497373874518100d0
Ti1      0.493448790490496d0     0.254317238011101d0     0.497313649839840d0
Ti1      0.995120662199008d0     0.505230125051025d0     0.498688684559931d0
Ti1      0.496901691443415d0     0.504452855147591d0     0.625546729478100d0
Ti1      0.492234754217411d0     0.005045108191892d0     0.627807371115270d0
Ti1      0.991832526382932d0     0.766481909766025d0     0.631049041337102d0
Ti1      0.993222237414108d0     0.227538621140918d0     0.634965016502731d0
N1       0.743081711953062d0     0.182438318454742d0     0.788101755162275d0
N1       0.800207870631715d0     0.348573381711107d0     0.770026939873392d0
K_POINTS automatic
4 4 1  0 0 0 
