&CONTROL
  calculation='relax',
  prefix='calc',
  pseudo_dir='/storage/coda1/p-amedford6/0/shared/rich_project_chbe-medford/medford-share/data/pseudos_module/espresso/nninc/pbe/van',
  outdir='.',
  tefield=.true.,
  dipfield=.true.,
  tprnfor=.true.,
  disk_io='none',
/
&SYSTEM
  ibrav=0,
  celldm(1)=1.8897261245650618d0,
  nat=55,
  ntyp=5,
  ecutwfc=29.39945797996531d00,
  ecutrho=293.9945797996531d00,
  nbnd=211,
  occupations='smearing',
  smearing='fd',
  degauss=0.007349864494991328d00,
  input_dft='BEEF-vdW',
  edir=3,
  emaxpos=0.9816997933994184d00,
  eopreg=0.025d00,
  eamp=0.0d00,
  nosym=.false.,
  noinv=.false.,
  nosym_evc=.false.,
  no_t_rev=.false.,
/
&ELECTRONS
  diagonalization='david',
  conv_thr=7.349864494991327e-08,
  mixing_beta=0.05d00,
  electron_maxstep=1000,
  startingwfc='atomic',
/
&IONS
  ion_dynamics='ipi',
/
&CELL
  cell_dynamics='ipi',
/
CELL_PARAMETERS alat
    6.579727202290808d0     0.000000000000000d0     0.000000000000000d0
   -0.000775132442404d0     5.961596420607155d0     0.000000000000000d0
    0.000000000000000d0    -0.000000000000000d0    25.155947251439940d0
ATOMIC_SPECIES
Ti1 47.867d00 Ti.UPF
O1 15.999d00 O.UPF
C1 12.011d00 C.UPF
H1 1.008d00 H.UPF
N1 14.007d00 N.UPF
ATOMIC_POSITIONS {crystal}
Ti1      0.000123603383822d0     0.499897385958537d0     0.238512187198856d0
Ti1      0.500142521004230d0     0.250038178055688d0     0.238522014307695d0
O1       0.000095322930372d0     0.000084774873452d0     0.317452257936818d0
O1       0.500112315057126d0     0.000084209992886d0     0.290342007718641d0
O1       0.698270105622955d0     0.250236102495782d0     0.369213011426276d0
O1       0.301995368073695d0     0.249987007385122d0     0.369214717028816d0
Ti1      0.503506181835612d0     0.499624122840216d0     0.363939903789490d0
Ti1      0.004765275802498d0     0.251008833169785d0     0.368463928584406d0
O1       0.491104868442700d0     0.999374391549521d0     0.452334035181129d0
O1       0.998566566763566d0     0.999709462818535d0     0.421984949849703d0
O1       0.186516339099494d0     0.249059200868600d0     0.504242624904469d0
O1       0.794006081362270d0     0.249219041007228d0     0.502541413637958d0
Ti1      0.991441422195845d0     0.496924732119264d0     0.498689876453808d0
Ti1      0.492382958740117d0     0.249817279984221d0     0.497564254803612d0
O1       0.980511274854456d0     0.000738507609765d0     0.584258925079770d0
O1       0.490645356670836d0     0.998358188924864d0     0.557045713483433d0
O1       0.670486435825385d0     0.253188806019092d0     0.644806198076421d0
O1       0.287900961356427d0     0.251266206451908d0     0.642937501197038d0
Ti1      0.479433327760931d0     0.497793917155316d0     0.625795386928487d0
Ti1      0.983836772052460d0     0.235224816779871d0     0.633079621324189d0
O1       0.500093721748991d0     0.000084921243389d0     0.186906639369252d0
O1       0.980753535710211d0     0.998682848792776d0     0.684869477348053d0
O1       0.198268504441574d0     0.250236248865719d0     0.238667392858710d0
O1       0.801993766892314d0     0.249987153755059d0     0.238669098461250d0
Ti1      0.000123603383822d0     0.999897385958537d0     0.238512187198856d0
Ti1      0.500142521004230d0     0.750038178055688d0     0.238522014307695d0
O1       0.000095322930372d0     0.500084774873452d0     0.317452257936818d0
O1       0.500112315057126d0     0.500084209992886d0     0.290342007718641d0
O1       0.698270105622955d0     0.750236102495782d0     0.369213011426276d0
O1       0.301995368073695d0     0.749987007385122d0     0.369214717028816d0
Ti1      0.502859922612604d0     0.999696496562514d0     0.363829241995940d0
Ti1      0.004740370926500d0     0.749004874520422d0     0.368544904248496d0
O1       0.491128006039091d0     0.499186769355414d0     0.452034658612535d0
O1       0.998143029964881d0     0.499689202861037d0     0.422763802249868d0
O1       0.186029664040889d0     0.748876980030282d0     0.504336453573510d0
O1       0.794412182129412d0     0.748713720659566d0     0.502638310199194d0
Ti1      0.992073188825065d0     0.996542345839710d0     0.496555816996512d0
Ti1      0.492355435695457d0     0.749218763827498d0     0.497764563758223d0
O1       0.979642521101513d0     0.498221879828251d0     0.591632521529844d0
O1       0.489691204687450d0     0.498496006883262d0     0.554912982732532d0
O1       0.670210763148603d0     0.742769258614378d0     0.645240234100131d0
O1       0.287873932685863d0     0.745148559015079d0     0.642839589219834d0
Ti1      0.484628049399558d0     0.997911628613605d0     0.628306694053032d0
Ti1      0.985280414963392d0     0.773911898943188d0     0.635376300060736d0
O1       0.500093721748991d0     0.500084921243389d0     0.186906639369252d0
O1       0.198268504441574d0     0.750236248865719d0     0.238667392858710d0
O1       0.801993766892315d0     0.749987153755059d0     0.238669098461250d0
C1       0.062022275166326d0     0.495487149419929d0     0.753808904011147d0
O1       0.956426639706262d0     0.500755304350247d0     0.703294481312205d0
H1       0.223090635007411d0     0.495104676682576d0     0.744626484175291d0
H1       0.810217817963274d0     0.507435930413844d0     0.708935106353559d0
H1       0.023224059140621d0     0.645204155452882d0     0.776492947429584d0
H1       0.021273020051717d0     0.342387455290148d0     0.774955632630390d0
N1       0.484628049399558d0     0.997911628613605d0     0.759488397012403d0
N1       0.484628049399558d0     0.997911628613605d0     0.714569396797243d0
K_POINTS automatic
4 4 1  0 0 0 
