&CONTROL
  calculation='relax',
  prefix='calc',
  pseudo_dir='/storage/coda1/p-amedford6/0/shared/rich_project_chbe-medford/medford-share/data/pseudos_module/espresso/nninc/pbe/van',
  outdir='.',
  tefield=.true.,
  dipfield=.true.,
  tprnfor=.true.,
  disk_io='none',
/
&SYSTEM
  ibrav=0,
  celldm(1)=1.8897261245650618d0,
  nat=55,
  ntyp=5,
  ecutwfc=29.39945797996531d00,
  ecutrho=293.9945797996531d00,
  nbnd=211,
  occupations='smearing',
  smearing='fd',
  degauss=0.007349864494991328d00,
  input_dft='BEEF-vdW',
  edir=3,
  emaxpos=0.9865330157083967d00,
  eopreg=0.025d00,
  eamp=0.0d00,
  nosym=.false.,
  noinv=.false.,
  nosym_evc=.false.,
  no_t_rev=.false.,
/
&ELECTRONS
  diagonalization='david',
  conv_thr=7.349864494991327e-08,
  mixing_beta=0.05d00,
  electron_maxstep=1000,
  startingwfc='atomic',
/
&IONS
  ion_dynamics='ipi',
/
&CELL
  cell_dynamics='ipi',
/
CELL_PARAMETERS alat
    6.579727202290808d0     0.000000000000000d0     0.000000000000000d0
   -0.000775132442404d0     5.961596420607155d0     0.000000000000000d0
    0.000000000000000d0    -0.000000000000000d0    25.155947251439940d0
ATOMIC_SPECIES
Ti1 47.867d00 Ti.UPF
O1 15.999d00 O.UPF
C1 12.011d00 C.UPF
H1 1.008d00 H.UPF
N1 14.007d00 N.UPF
ATOMIC_POSITIONS {crystal}
Ti1      0.000123603383822d0     0.499897385958537d0     0.238512187198856d0
Ti1      0.500142521004230d0     0.250038178055688d0     0.238522014307695d0
O1       0.000095322930372d0     0.000084774873452d0     0.317452257936818d0
O1       0.500112315057126d0     0.000084209992886d0     0.290342007718641d0
O1       0.698270105622955d0     0.250236102495782d0     0.369213011426276d0
O1       0.301995368073695d0     0.249987007385122d0     0.369214717028816d0
Ti1      0.506187253945654d0     0.498258447209109d0     0.364039782208823d0
Ti1      0.007764686705011d0     0.249948364351210d0     0.367823280151178d0
O1       0.502935760527616d0     0.999411760639163d0     0.452597075084634d0
O1       0.000304697666317d0     0.999767612595201d0     0.421696861084461d0
O1       0.197868861895139d0     0.250051292486434d0     0.502811338858278d0
O1       0.807190651991490d0     0.251268220565826d0     0.503215910928780d0
Ti1      0.003348102510033d0     0.499853416828953d0     0.496382395587531d0
Ti1      0.502783479676713d0     0.252350643613934d0     0.497897800676314d0
O1       0.000587272384493d0     0.002789117166460d0     0.583429610669740d0
O1       0.502359286334148d0     0.999067465761991d0     0.556845670098827d0
O1       0.697216452962744d0     0.249830086464759d0     0.643771173623873d0
O1       0.311725677537126d0     0.248095964297183d0     0.643814968609297d0
Ti1      0.500874041004439d0     0.495841509513577d0     0.627089658377673d0
Ti1      0.999449867604934d0     0.224328171435493d0     0.635016691400612d0
O1       0.500093721748991d0     0.000084921243389d0     0.186906639369252d0
O1       0.005733496850245d0     0.990200335525233d0     0.684332056905014d0
O1       0.198268504441574d0     0.250236248865719d0     0.238667392858710d0
O1       0.801993766892314d0     0.249987153755059d0     0.238669098461250d0
Ti1      0.000123603383822d0     0.999897385958537d0     0.238512187198856d0
Ti1      0.500142521004230d0     0.750038178055688d0     0.238522014307695d0
O1       0.000095322930372d0     0.500084774873452d0     0.317452257936818d0
O1       0.500112315057126d0     0.500084209992886d0     0.290342007718641d0
O1       0.698270105622955d0     0.750236102495782d0     0.369213011426276d0
O1       0.301995368073695d0     0.749987007385122d0     0.369214717028816d0
Ti1      0.505619560530173d0     0.998311870802445d0     0.364010403679061d0
Ti1      0.007676620279156d0     0.749917306734862d0     0.367931904314963d0
O1       0.502482601270927d0     0.500966187078375d0     0.452414322857129d0
O1       0.001692860454360d0     0.500499989226363d0     0.422275046281247d0
O1       0.197728291068359d0     0.749557606144025d0     0.503580002893261d0
O1       0.807291121359148d0     0.748336084478915d0     0.503975847636591d0
Ti1      0.001883918839665d0     0.000563829769298d0     0.495911010032278d0
Ti1      0.502927810903239d0     0.752065395692735d0     0.498448632730802d0
O1       0.006977164364500d0     0.494785621631354d0     0.595954606334147d0
O1       0.501330213061814d0     0.496132115327427d0     0.555786392448343d0
O1       0.696632022490731d0     0.744276105230637d0     0.641827379648187d0
O1       0.311253063694836d0     0.745552979728738d0     0.641923183974018d0
Ti1      0.500720978589551d0     0.995478554309461d0     0.628492525456882d0
Ti1      0.999158149500554d0     0.770399272227811d0     0.631539709441404d0
O1       0.500093721748991d0     0.500084921243389d0     0.186906639369252d0
O1       0.198268504441574d0     0.750236248865719d0     0.238667392858710d0
O1       0.801993766892315d0     0.749987153755059d0     0.238669098461250d0
C1       0.012194927451235d0     0.536767752981197d0     0.761641372276250d0
O1       0.124686239503996d0     0.727487164834227d0     0.777296766738649d0
H1       0.062820801386436d0     0.394759702624272d0     0.785544736241914d0
H1       0.087507380432571d0     0.851055355325146d0     0.753814850779256d0
H1       0.847922115646047d0     0.558771384659031d0     0.766121296258205d0
H1       0.043513651352396d0     0.491816987140889d0     0.719383539191343d0
N1       0.552417221704356d0     0.161917292672551d0     0.786159392047541d0
N1       0.590119884181722d0     0.994562409253556d0     0.769906432113302d0
K_POINTS automatic
4 4 1  0 0 0 
