&CONTROL
  calculation='relax',
  prefix='calc',
  pseudo_dir='/storage/coda1/p-amedford6/0/shared/rich_project_chbe-medford/medford-share/data/pseudos_module/espresso/nninc/pbe/van',
  outdir='.',
  tefield=.true.,
  dipfield=.true.,
  tprnfor=.true.,
  disk_io='none',
/
&SYSTEM
  ibrav=0,
  celldm(1)=1.8897261245650618d0,
  nat=53,
  ntyp=5,
  ecutwfc=29.39945797996531d00,
  ecutrho=293.9945797996531d00,
  nbnd=205,
  occupations='smearing',
  smearing='fd',
  degauss=0.007349864494991328d00,
  nspin=2,
  starting_magnetization(1)=0.0d00,
  starting_magnetization(2)=0.0d00,
  starting_magnetization(3)=0.0d00,
  starting_magnetization(4)=0.0d00,
  starting_magnetization(5)=0.025d00,
  input_dft='BEEF-vdW',
  edir=3,
  emaxpos=0.9769250679297801d00,
  eopreg=0.025d00,
  eamp=0.0d00,
  nosym=.false.,
  noinv=.false.,
  nosym_evc=.false.,
  no_t_rev=.false.,
/
&ELECTRONS
  diagonalization='david',
  conv_thr=7.349864494991327e-08,
  mixing_beta=0.05d00,
  electron_maxstep=1000,
  startingpot='file',
  startingwfc='atomic',
/
&IONS
  ion_dynamics='ipi',
/
&CELL
  cell_dynamics='ipi',
/
CELL_PARAMETERS alat
    6.579727202290808d0     0.000000000000000d0     0.000000000000000d0
   -0.000775132442404d0     5.961596420607155d0     0.000000000000000d0
    0.000000000000000d0    -0.000000000000000d0    25.155947251439940d0
ATOMIC_SPECIES
Ti1 47.867d00 Ti.UPF
O1 15.999d00 O.UPF
H1 1.008d00 H.UPF
N1 14.007d00 N.UPF
C1 12.011d00 C.UPF
ATOMIC_POSITIONS {crystal}
Ti1      0.000123603383822d0     0.499897385958536d0     0.238512187198856d0
Ti1      0.500142521004230d0     0.250038178055688d0     0.238522014307695d0
O1       0.000095322930372d0     0.000084774873452d0     0.317452257936818d0
O1       0.500112315057126d0     0.000084209992886d0     0.290342007718641d0
O1       0.698270105622955d0     0.250236102495782d0     0.369213011426276d0
O1       0.301995368073695d0     0.249987007385122d0     0.369214717028816d0
Ti1      0.500198167309398d0     0.485761668506182d0     0.364758343030283d0
Ti1      0.000261424674789d0     0.248709163236136d0     0.368424970923767d0
O1       0.500232439519200d0     0.999408980291426d0     0.450179789314651d0
O1       0.001882992193933d0     0.999479849154423d0     0.422099495650131d0
O1       0.200051283034852d0     0.249318449065280d0     0.501671227110878d0
O1       0.804729189517905d0     0.248265841895731d0     0.501090180009983d0
Ti1      0.991347816860255d0     0.493520785326946d0     0.501654761098373d0
Ti1      0.487541564780572d0     0.249586953827673d0     0.495692494255529d0
O1       0.995750695281729d0     0.002659626721753d0     0.582342073096973d0
O1       0.503202085896240d0     0.001162962724422d0     0.553266452631550d0
O1       0.685218665906005d0     0.256596341880025d0     0.639500042307203d0
O1       0.308159571506316d0     0.256196566307485d0     0.637658731314966d0
Ti1      0.500393371441673d0     0.504586265781053d0     0.623463149908172d0
Ti1      0.008179277627976d0     0.258602962620609d0     0.630661578494388d0
O1       0.500093721748991d0     0.000084921243389d0     0.186906639369252d0
O1       0.001867343158059d0     0.005049176742710d0     0.684268964214740d0
O1       0.198268504441574d0     0.250236248865719d0     0.238667392858710d0
O1       0.801993766892314d0     0.249987153755059d0     0.238669098461250d0
Ti1      0.000123603383822d0     0.999897385958536d0     0.238512187198856d0
Ti1      0.500142521004230d0     0.750038178055688d0     0.238522014307695d0
O1       0.000095322930372d0     0.500084774873452d0     0.317452257936818d0
O1       0.500112315057126d0     0.500084209992886d0     0.290342007718641d0
O1       0.698270105622955d0     0.750236102495782d0     0.369213011426276d0
O1       0.301995368073695d0     0.749987007385122d0     0.369214717028816d0
Ti1      0.500001644927041d0     0.985370751416071d0     0.364779031055315d0
Ti1      0.000183276761494d0     0.748948988039575d0     0.368476322807288d0
O1       0.499576049738810d0     0.500502791968704d0     0.450130347615934d0
O1       0.001460782485842d0     0.499964783615161d0     0.422656139091726d0
O1       0.199118733712044d0     0.750855015123385d0     0.502209813911696d0
O1       0.805030703122425d0     0.748970256534806d0     0.501648194129390d0
Ti1      0.990918209394963d0     0.993010321219175d0     0.499815971166778d0
Ti1      0.487269757809572d0     0.749556077344964d0     0.495898053408924d0
O1       0.997436308295758d0     0.492302604515307d0     0.582256127596064d0
O1       0.502589094929215d0     0.501193131970585d0     0.552323893031692d0
O1       0.687043008623629d0     0.752164918881433d0     0.639607893407537d0
O1       0.309970460877047d0     0.752868667691675d0     0.638673012252016d0
Ti1      0.505788495250405d0     0.003717585864723d0     0.624561477265278d0
Ti1      0.004867188860078d0     0.781312125832314d0     0.640226454864034d0
O1       0.500093721748991d0     0.500084921243389d0     0.186906639369252d0
O1       0.198268504441574d0     0.750236248865719d0     0.238667392858710d0
O1       0.801993766892315d0     0.749987153755059d0     0.238669098461250d0
H1       0.847386430082175d0     0.488895847938128d0     0.706771384432093d0
N1       0.993186901929955d0     0.498344711240779d0     0.693528968462555d0
C1       0.124771582881554d0     0.489675397545489d0     0.740642305751556d0
H1       0.097024075739899d0     0.632827925227249d0     0.766943496490308d0
H1       0.100603192456901d0     0.333867628963147d0     0.762768201232785d0
H1       0.284139306324348d0     0.495351217336431d0     0.729008210478663d0
K_POINTS automatic
4 4 1  0 0 0 
