&CONTROL
  calculation='relax',
  prefix='calc',
  pseudo_dir='/storage/coda1/p-amedford6/0/shared/rich_project_chbe-medford/medford-share/data/pseudos_module/espresso/nninc/pbe/van',
  outdir='.',
  tefield=.true.,
  dipfield=.true.,
  tprnfor=.true.,
  disk_io='none',
/
&SYSTEM
  ibrav=0,
  celldm(1)=1.8897261245650618d0,
  nat=53,
  ntyp=5,
  ecutwfc=29.39945797996531d00,
  ecutrho=293.9945797996531d00,
  nbnd=207,
  occupations='smearing',
  smearing='fd',
  degauss=0.007349864494991328d00,
  input_dft='BEEF-vdW',
  edir=3,
  emaxpos=0.9857244866040016d00,
  eopreg=0.025d00,
  eamp=0.0d00,
  nosym=.false.,
  noinv=.false.,
  nosym_evc=.false.,
  no_t_rev=.false.,
/
&ELECTRONS
  diagonalization='david',
  conv_thr=7.349864494991327e-08,
  mixing_beta=0.05d00,
  electron_maxstep=1000,
  startingpot='file',
  startingwfc='atomic',
/
&IONS
  ion_dynamics='ipi',
/
&CELL
  cell_dynamics='ipi',
/
CELL_PARAMETERS alat
    6.579727202290808d0     0.000000000000000d0     0.000000000000000d0
   -0.000775132442404d0     5.961596420607155d0     0.000000000000000d0
    0.000000000000000d0    -0.000000000000000d0    25.155947251439940d0
ATOMIC_SPECIES
Ti1 47.867d00 Ti.UPF
O1 15.999d00 O.UPF
H1 1.008d00 H.UPF
N1 14.007d00 N.UPF
C1 12.011d00 C.UPF
ATOMIC_POSITIONS {crystal}
Ti1      0.000123603383822d0     0.499897385958536d0     0.238512187198856d0
Ti1      0.500142521004230d0     0.250038178055688d0     0.238522014307695d0
O1       0.000095322930372d0     0.000084774873452d0     0.317452257936818d0
O1       0.500112315057126d0     0.000084209992886d0     0.290342007718641d0
O1       0.698270105622955d0     0.250236102495782d0     0.369213011426276d0
O1       0.301995368073695d0     0.249987007385122d0     0.369214717028816d0
Ti1      0.500198167309398d0     0.485761668506182d0     0.364758343030283d0
Ti1      0.000261424674789d0     0.248709163236136d0     0.368424970923767d0
O1       0.500134246323120d0     0.999440508757780d0     0.451067090447505d0
O1       0.001882992193933d0     0.999479849154423d0     0.422099495650131d0
O1       0.197879463514937d0     0.252250879656214d0     0.501926596844088d0
O1       0.805665230784506d0     0.251241244715981d0     0.501965644180013d0
Ti1      0.996597248224142d0     0.502419338661900d0     0.499017901639508d0
Ti1      0.492626150089682d0     0.250565575645562d0     0.496662484274005d0
O1       0.006387719613350d0     0.008332292871280d0     0.581806468278310d0
O1       0.501053115641180d0     0.004287222876047d0     0.554125102479371d0
O1       0.692447127822047d0     0.249685783389638d0     0.640290089141880d0
O1       0.312985579230318d0     0.254319371997957d0     0.642479368739391d0
Ti1      0.509661204904861d0     0.503911700224233d0     0.624762125885883d0
Ti1      0.012766704136859d0     0.237961989326883d0     0.643471275233995d0
O1       0.500093721748991d0     0.000084921243389d0     0.186906639369252d0
O1       0.002944441817175d0     0.981548113403758d0     0.682028075526581d0
O1       0.198268504441574d0     0.250236248865719d0     0.238667392858710d0
O1       0.801993766892314d0     0.249987153755059d0     0.238669098461250d0
Ti1      0.000123603383822d0     0.999897385958536d0     0.238512187198856d0
Ti1      0.500142521004230d0     0.750038178055688d0     0.238522014307695d0
O1       0.000095322930372d0     0.500084774873452d0     0.317452257936818d0
O1       0.500112315057126d0     0.500084209992886d0     0.290342007718641d0
O1       0.698270105622955d0     0.750236102495782d0     0.369213011426276d0
O1       0.301995368073695d0     0.749987007385122d0     0.369214717028816d0
Ti1      0.500001644927041d0     0.985370751416071d0     0.364779031055315d0
Ti1      0.000183276761494d0     0.748948988039575d0     0.368476322807288d0
O1       0.500721348615439d0     0.501769432909440d0     0.450936829625569d0
O1       0.001460782485842d0     0.499964783615161d0     0.422656139091726d0
O1       0.198201263863323d0     0.748536533918149d0     0.503164394793046d0
O1       0.806143512820442d0     0.750480414252183d0     0.503170060878909d0
Ti1      0.994911772550004d0     0.005007894348643d0     0.497920393170760d0
Ti1      0.492842107501450d0     0.750428027178857d0     0.497208596741237d0
O1       0.001766224294313d0     0.493416478154976d0     0.591721860844142d0
O1       0.503115510575007d0     0.498496979612183d0     0.553501324737620d0
O1       0.693749717075566d0     0.752103423313598d0     0.637458100707618d0
O1       0.315080756068138d0     0.749509526605559d0     0.637851989205985d0
Ti1      0.505768045524100d0     0.001598759537090d0     0.625874380807463d0
Ti1      0.006989490204078d0     0.773844133374724d0     0.626664152717846d0
O1       0.500093721748991d0     0.500084921243389d0     0.186906639369252d0
O1       0.198268504441574d0     0.750236248865719d0     0.238667392858710d0
O1       0.801993766892315d0     0.749987153755059d0     0.238669098461250d0
H1       0.708660297484140d0     0.338470718531365d0     0.724446700678658d0
N1       0.979295404400581d0     0.433239331911973d0     0.719529867644312d0
C1       0.140803261164472d0     0.513123370020649d0     0.744054962813752d0
H1       0.127961043745220d0     0.572180400627084d0     0.784542333838751d0
H1       0.284682635828739d0     0.513486526118642d0     0.724087702871263d0
N1       0.804485932972445d0     0.437020589592884d0     0.745727357706077d0
K_POINTS automatic
4 4 1  0 0 0 
