&CONTROL
  calculation='relax',
  prefix='calc',
  pseudo_dir='/storage/coda1/p-amedford6/0/shared/rich_project_chbe-medford/medford-share/data/pseudos_module/espresso/nninc/pbe/van',
  outdir='.',
  tefield=.true.,
  dipfield=.true.,
  tprnfor=.true.,
  disk_io='none',
/
&SYSTEM
  ibrav=0,
  celldm(1)=1.8897261245650618d0,
  nat=55,
  ntyp=5,
  ecutwfc=29.39945797996531d00,
  ecutrho=293.9945797996531d00,
  nbnd=211,
  occupations='smearing',
  smearing='fd',
  degauss=0.007349864494991328d00,
  input_dft='BEEF-vdW',
  edir=3,
  emaxpos=0.0014852209319893284d00,
  eopreg=0.025d00,
  eamp=0.0d00,
  nosym=.false.,
  noinv=.false.,
  nosym_evc=.false.,
  no_t_rev=.false.,
/
&ELECTRONS
  diagonalization='david',
  conv_thr=7.349864494991327e-08,
  mixing_beta=0.05d00,
  electron_maxstep=1000,
  startingpot='file',
  startingwfc='atomic',
/
&IONS
  ion_dynamics='ipi',
/
&CELL
  cell_dynamics='ipi',
/
CELL_PARAMETERS alat
    6.579727202290808d0     0.000000000000000d0     0.000000000000000d0
   -0.000775132442404d0     5.961596420607155d0     0.000000000000000d0
    0.000000000000000d0    -0.000000000000000d0    25.155947251439940d0
ATOMIC_SPECIES
Ti1 47.867d00 Ti.UPF
O1 15.999d00 O.UPF
N1 14.007d00 N.UPF
C1 12.011d00 C.UPF
H1 1.008d00 H.UPF
ATOMIC_POSITIONS {crystal}
Ti1      0.000123603383822d0     0.499897385958536d0     0.238512187198856d0
Ti1      0.500142521004230d0     0.250038178055688d0     0.238522014307695d0
O1       0.000095322930372d0     0.000084774873452d0     0.317452257936818d0
O1       0.500112315057126d0     0.000084209992886d0     0.290342007718641d0
O1       0.698270105622955d0     0.250236102495782d0     0.369213011426276d0
O1       0.301995368073695d0     0.249987007385122d0     0.369214717028816d0
Ti1      0.500198167309398d0     0.485761668506182d0     0.364758343030283d0
Ti1      0.000261424674789d0     0.248709163236136d0     0.368424970923767d0
O1       0.500661497736652d0     0.997492720983603d0     0.449359559640259d0
O1       0.001882992193933d0     0.999479849154423d0     0.422099495650131d0
O1       0.195586081004746d0     0.247966046368649d0     0.501631126730535d0
O1       0.802143659546809d0     0.247653064389285d0     0.500782946026342d0
Ti1      0.012929456741950d0     0.495836018587647d0     0.504868505123939d0
Ti1      0.519700056483444d0     0.245072785579562d0     0.496093867289519d0
O1       0.000734925275179d0     0.998237465189041d0     0.580442749962885d0
O1       0.501233543944200d0     0.999168520586539d0     0.552432629511466d0
O1       0.688924129387008d0     0.255679500236255d0     0.636930069807309d0
O1       0.311202625376656d0     0.253213511202771d0     0.635310137098694d0
Ti1      0.499015503370514d0     0.497032367252223d0     0.622244606583968d0
Ti1      0.994268493688463d0     0.258620412665256d0     0.634581634704776d0
O1       0.500093721748991d0     0.000084921243389d0     0.186906639369252d0
O1       0.000967196347052d0     0.002330653895088d0     0.682917647517054d0
O1       0.198268504441574d0     0.250236248865719d0     0.238667392858710d0
O1       0.801993766892314d0     0.249987153755059d0     0.238669098461250d0
Ti1      0.000123603383822d0     0.999897385958536d0     0.238512187198856d0
Ti1      0.500142521004230d0     0.750038178055688d0     0.238522014307695d0
O1       0.000095322930372d0     0.500084774873452d0     0.317452257936818d0
O1       0.500112315057126d0     0.500084209992886d0     0.290342007718641d0
O1       0.698270105622955d0     0.750236102495782d0     0.369213011426276d0
O1       0.301995368073695d0     0.749987007385122d0     0.369214717028816d0
Ti1      0.500001644927041d0     0.985370751416071d0     0.364779031055315d0
Ti1      0.000183276761494d0     0.748948988039575d0     0.368476322807288d0
O1       0.501406096820819d0     0.498240790054578d0     0.449439009423664d0
O1       0.001460782485842d0     0.499964783615161d0     0.422656139091726d0
O1       0.195732141883411d0     0.747030210896273d0     0.501959894810622d0
O1       0.802567856511532d0     0.748529676807444d0     0.501125321361140d0
Ti1      0.015465302608360d0     0.995638818305710d0     0.503975369508601d0
Ti1      0.519782930443056d0     0.747804595833405d0     0.495864848136321d0
O1       0.996752798183504d0     0.494297951471952d0     0.581441441338315d0
O1       0.500846358307830d0     0.497564113963806d0     0.550678153938515d0
O1       0.689619288436628d0     0.746972717975188d0     0.635939826646667d0
O1       0.310532504736551d0     0.748076356509867d0     0.634877444593820d0
Ti1      0.493840017794173d0     0.995083576581338d0     0.626303713312304d0
Ti1      0.995646461103557d0     0.770480944445190d0     0.637998238145343d0
O1       0.500093721748991d0     0.500084921243389d0     0.186906639369252d0
O1       0.198268504441574d0     0.750236248865719d0     0.238667392858710d0
O1       0.801993766892315d0     0.749987153755059d0     0.238669098461250d0
N1       0.093623324974189d0     0.496044103858500d0     0.735874325853859d0
N1       0.013286746801644d0     0.497528681130138d0     0.688520185109285d0
C1       0.996474252607009d0     0.533092469686258d0     0.779297541218301d0
H1       0.833968728316540d0     0.569152648736828d0     0.779741755537346d0
H1       0.081291342215188d0     0.529164110842591d0     0.816063802494726d0
O1       0.494855198082644d0     0.999177969990228d0     0.720846406913233d0
H1       0.611147027709829d0     0.088451373198368d0     0.731776743918728d0
H1       0.373838046700821d0     0.079383097286386d0     0.731954187182051d0
K_POINTS automatic
4 4 1  0 0 0 
