&CONTROL
  calculation='relax',
  prefix='calc',
  pseudo_dir='/storage/coda1/p-amedford6/0/shared/rich_project_chbe-medford/medford-share/data/pseudos_module/espresso/nninc/pbe/van',
  outdir='.',
  tefield=.true.,
  dipfield=.true.,
  tprnfor=.true.,
  disk_io='none',
/
&SYSTEM
  ibrav=0,
  celldm(1)=1.8897261245650618d0,
  nat=51,
  ntyp=5,
  ecutwfc=29.39945797996531d00,
  ecutrho=293.9945797996531d00,
  nbnd=206,
  occupations='smearing',
  smearing='fd',
  degauss=0.007349864494991328d00,
  input_dft='BEEF-vdW',
  edir=3,
  emaxpos=0.9920455975800873d00,
  eopreg=0.025d00,
  eamp=0.0d00,
  nosym=.false.,
  noinv=.false.,
  nosym_evc=.false.,
  no_t_rev=.false.,
/
&ELECTRONS
  diagonalization='david',
  conv_thr=7.349864494991327e-08,
  mixing_beta=0.05d00,
  electron_maxstep=1000,
  startingwfc='atomic',
/
&IONS
  ion_dynamics='ipi',
/
&CELL
  cell_dynamics='ipi',
/
CELL_PARAMETERS alat
    6.579727202290808d0     0.000000000000000d0     0.000000000000000d0
   -0.000775132442404d0     5.961596420607155d0     0.000000000000000d0
    0.000000000000000d0    -0.000000000000000d0    25.155947251439940d0
ATOMIC_SPECIES
Ti1 47.867d00 Ti.UPF
O1 15.999d00 O.UPF
N1 14.007d00 N.UPF
C1 12.011d00 C.UPF
H1 1.008d00 H.UPF
ATOMIC_POSITIONS {crystal}
Ti1      0.000123603383822d0     0.499897385958536d0     0.238512187198856d0
Ti1      0.500142521004230d0     0.250038178055688d0     0.238522014307695d0
O1       0.000095322930372d0     0.000084774873452d0     0.317452257936818d0
O1       0.500112315057126d0     0.000084209992886d0     0.290342007718641d0
O1       0.698270105622955d0     0.250236102495782d0     0.369213011426276d0
O1       0.301995368073695d0     0.249987007385122d0     0.369214717028816d0
Ti1      0.500198167309398d0     0.485761668506182d0     0.364758343030283d0
Ti1      0.000261424674789d0     0.248709163236136d0     0.368424970923767d0
O1       0.498787716441463d0     0.001650180128137d0     0.450060517396362d0
O1       0.001882992193933d0     0.999479849154423d0     0.422099495650131d0
O1       0.195200547318995d0     0.253487117681063d0     0.500784309413133d0
O1       0.801007726933435d0     0.252104636654113d0     0.501115371417988d0
Ti1      0.991741287989440d0     0.504561003945827d0     0.500905429913664d0
Ti1      0.487987116642160d0     0.252055578883820d0     0.495725905493692d0
O1       0.998588064842422d0     0.010910279105613d0     0.582378363133073d0
O1       0.490396881697470d0     0.004105650498356d0     0.552831208132727d0
O1       0.679192989239104d0     0.258749925622437d0     0.637347220153368d0
O1       0.301605065239687d0     0.262746776647155d0     0.639333281167938d0
Ti1      0.494384174151764d0     0.508493587950181d0     0.623806855200150d0
Ti1      0.990810027710598d0     0.260412859740337d0     0.630567641937977d0
O1       0.500093721748991d0     0.000084921243389d0     0.186906639369252d0
O1       0.991871932168264d0     0.009417491855414d0     0.682729733270426d0
O1       0.198268504441574d0     0.250236248865719d0     0.238667392858710d0
O1       0.801993766892314d0     0.249987153755059d0     0.238669098461250d0
Ti1      0.000123603383822d0     0.999897385958536d0     0.238512187198856d0
Ti1      0.500142521004230d0     0.750038178055688d0     0.238522014307695d0
O1       0.000095322930372d0     0.500084774873452d0     0.317452257936818d0
O1       0.500112315057126d0     0.500084209992886d0     0.290342007718641d0
O1       0.698270105622955d0     0.750236102495782d0     0.369213011426276d0
O1       0.301995368073695d0     0.749987007385122d0     0.369214717028816d0
Ti1      0.500001644927041d0     0.985370751416071d0     0.364779031055315d0
Ti1      0.000183276761494d0     0.748948988039575d0     0.368476322807288d0
O1       0.498102636613565d0     0.502532668207319d0     0.449926501767608d0
O1       0.001460782485842d0     0.499964783615161d0     0.422656139091726d0
O1       0.194513396643739d0     0.752278479650967d0     0.501587459642003d0
O1       0.801413242867531d0     0.754007439428679d0     0.501922591142846d0
Ti1      0.991634899175469d0     0.004301090888815d0     0.498839606375048d0
Ti1      0.487827231525577d0     0.751617499620562d0     0.495827859232299d0
O1       0.992468518223524d0     0.501741904309057d0     0.583336332936848d0
O1       0.493757641554492d0     0.504321009511092d0     0.552505489341137d0
O1       0.680459114368378d0     0.760031942397801d0     0.636591064900673d0
O1       0.305275355888951d0     0.757263528669974d0     0.639336688192958d0
Ti1      0.486455237205672d0     0.007510913701305d0     0.624107857366306d0
Ti1      0.989094332462138d0     0.787236033640799d0     0.638251673042602d0
O1       0.500093721748991d0     0.500084921243389d0     0.186906639369252d0
O1       0.198268504441574d0     0.750236248865719d0     0.238667392858710d0
O1       0.801993766892315d0     0.749987153755059d0     0.238669098461250d0
N1       0.084581589883584d0     0.481365075987619d0     0.732597698886696d0
C1       0.181800899287468d0     0.473193212722010d0     0.772027239825000d0
H1       0.273080699734487d0     0.370296320185295d0     0.797184555790922d0
N1       0.987277979044276d0     0.507240784339633d0     0.691648905153557d0
K_POINTS automatic
4 4 1  0 0 0 
