&CONTROL
  calculation='relax',
  prefix='calc',
  pseudo_dir='/storage/coda1/p-amedford6/0/shared/rich_project_chbe-medford/medford-share/data/pseudos_module/espresso/nninc/pbe/van',
  outdir='.',
  tefield=.true.,
  dipfield=.true.,
  tprnfor=.true.,
  disk_io='none',
/
&SYSTEM
  ibrav=0,
  celldm(1)=1.8897261245650618d0,
  nat=55,
  ntyp=5,
  ecutwfc=29.39945797996531d00,
  ecutrho=293.9945797996531d00,
  nbnd=211,
  occupations='smearing',
  smearing='fd',
  degauss=0.007349864494991328d00,
  input_dft='BEEF-vdW',
  edir=3,
  emaxpos=0.9984614574357731d00,
  eopreg=0.025d00,
  eamp=0.0d00,
  nosym=.false.,
  noinv=.false.,
  nosym_evc=.false.,
  no_t_rev=.false.,
/
&ELECTRONS
  diagonalization='david',
  conv_thr=7.349864494991327e-08,
  mixing_beta=0.05d00,
  electron_maxstep=1000,
  startingwfc='atomic',
/
&IONS
  ion_dynamics='ipi',
/
&CELL
  cell_dynamics='ipi',
/
CELL_PARAMETERS alat
    6.579727202290808d0     0.000000000000000d0     0.000000000000000d0
   -0.000775132442404d0     5.961596420607155d0     0.000000000000000d0
    0.000000000000000d0    -0.000000000000000d0    25.155947251439940d0
ATOMIC_SPECIES
Ti1 47.867d00 Ti.UPF
O1 15.999d00 O.UPF
C1 12.011d00 C.UPF
H1 1.008d00 H.UPF
N1 14.007d00 N.UPF
ATOMIC_POSITIONS {crystal}
Ti1      0.000123603383822d0     0.499897385958537d0     0.238512187198856d0
Ti1      0.500142521004230d0     0.250038178055688d0     0.238522014307695d0
O1       0.000095322930372d0     0.000084774873452d0     0.317452257936818d0
O1       0.500112315057126d0     0.000084209992886d0     0.290342007718641d0
O1       0.698270105622955d0     0.250236102495782d0     0.369213011426276d0
O1       0.301995368073695d0     0.249987007385122d0     0.369214717028816d0
Ti1      0.506675760446820d0     0.500384704293264d0     0.363601196112939d0
Ti1      0.007587854317965d0     0.248796430098007d0     0.367727655358124d0
O1       0.498165939815601d0     0.985288054095349d0     0.450130971731144d0
O1       0.998795437529696d0     0.995441809252066d0     0.420438362214809d0
O1       0.193062890290585d0     0.233447671442727d0     0.501074414181267d0
O1       0.800959488925747d0     0.233909259060243d0     0.501612184783324d0
Ti1      0.997648664526566d0     0.487997811398247d0     0.496429890430484d0
Ti1      0.495405434795019d0     0.237589198267954d0     0.496033749773976d0
O1       0.996516422298653d0     0.972788449108780d0     0.579148541142528d0
O1       0.496102623087930d0     0.974084448690980d0     0.554820165522646d0
O1       0.690047293377773d0     0.223545515857249d0     0.639210331122558d0
O1       0.304397824863317d0     0.223866911099356d0     0.640055107340416d0
Ti1      0.495559890745673d0     0.469396314818075d0     0.624349470336792d0
Ti1      0.996868123762133d0     0.193926811791145d0     0.631008030323366d0
O1       0.500093721748991d0     0.000084921243389d0     0.186906639369252d0
O1       0.000643073689934d0     0.967786983611439d0     0.680105034262559d0
O1       0.198268504441574d0     0.250236248865719d0     0.238667392858710d0
O1       0.801993766892314d0     0.249987153755059d0     0.238669098461250d0
Ti1      0.000123603383822d0     0.999897385958537d0     0.238512187198856d0
Ti1      0.500142521004230d0     0.750038178055688d0     0.238522014307695d0
O1       0.000095322930372d0     0.500084774873452d0     0.317452257936818d0
O1       0.500112315057126d0     0.500084209992886d0     0.290342007718641d0
O1       0.698270105622955d0     0.750236102495782d0     0.369213011426276d0
O1       0.301995368073695d0     0.749987007385122d0     0.369214717028816d0
Ti1      0.505008553018201d0     0.000443996132252d0     0.363422910929358d0
Ti1      0.007498519202169d0     0.747030064658160d0     0.367452931479832d0
O1       0.498392990684293d0     0.484269370770074d0     0.449969805398248d0
O1       0.999218561919232d0     0.494140794385552d0     0.421432108651640d0
O1       0.193239468025099d0     0.732543469624028d0     0.500802642351073d0
O1       0.800882338633489d0     0.732094663966354d0     0.500927942970410d0
Ti1      0.994873481136091d0     0.987982264882553d0     0.493653368257886d0
Ti1      0.495052923440987d0     0.736117544098603d0     0.495980652856878d0
O1       0.999304169871349d0     0.469838602809873d0     0.590159744726441d0
O1       0.495011619142496d0     0.476956123982299d0     0.552944081011100d0
O1       0.691524410717227d0     0.715349923218323d0     0.639175896359858d0
O1       0.304778865828295d0     0.715106581819695d0     0.639752948344706d0
Ti1      0.495952434301525d0     0.969428618436559d0     0.626422281814576d0
Ti1      0.993596340913995d0     0.740272386616287d0     0.627336263926809d0
O1       0.500093721748991d0     0.500084921243389d0     0.186906639369252d0
O1       0.198268504441574d0     0.750236248865719d0     0.238667392858710d0
O1       0.801993766892315d0     0.749987153755059d0     0.238669098461250d0
C1       0.115960425674623d0     0.653146306466119d0     0.782028513128376d0
O1       0.256551412975907d0     0.835211766216502d0     0.775289381596018d0
H1       0.180886721230390d0     0.532359416301579d0     0.810016275502294d0
H1       0.215352770069257d0     0.914065583048261d0     0.743303995588485d0
H1       0.968800698149029d0     0.713237153018823d0     0.796938216085178d0
H1       0.092269176128841d0     0.570064353339064d0     0.744014028395484d0
N1       0.752357370845859d0     0.140898202632503d0     0.805190007153684d0
N1       0.808563808786492d0     0.231824256979847d0     0.769598438262656d0
K_POINTS automatic
4 4 1  0 0 0 
