&CONTROL
  calculation='relax',
  prefix='calc',
  pseudo_dir='/storage/coda1/p-amedford6/0/shared/rich_project_chbe-medford/medford-share/data/pseudos_module/espresso/nninc/pbe/van',
  outdir='.',
  tefield=.true.,
  dipfield=.true.,
  tprnfor=.true.,
  disk_io='none',
/
&SYSTEM
  ibrav=0,
  celldm(1)=1.8897261245650618d0,
  nat=55,
  ntyp=5,
  ecutwfc=29.39945797996531d00,
  ecutrho=293.9945797996531d00,
  nbnd=211,
  occupations='smearing',
  smearing='fd',
  degauss=0.007349864494991328d00,
  input_dft='BEEF-vdW',
  edir=3,
  emaxpos=0.9863972941118682d00,
  eopreg=0.025d00,
  eamp=0.0d00,
  nosym=.false.,
  noinv=.false.,
  nosym_evc=.false.,
  no_t_rev=.false.,
/
&ELECTRONS
  diagonalization='david',
  conv_thr=7.349864494991327e-08,
  mixing_beta=0.05d00,
  electron_maxstep=1000,
  startingwfc='atomic',
/
&IONS
  ion_dynamics='ipi',
/
&CELL
  cell_dynamics='ipi',
/
CELL_PARAMETERS alat
    6.579727202290808d0     0.000000000000000d0     0.000000000000000d0
   -0.000775132442404d0     5.961596420607155d0     0.000000000000000d0
    0.000000000000000d0    -0.000000000000000d0    25.155947251439940d0
ATOMIC_SPECIES
Ti1 47.867d00 Ti.UPF
O1 15.999d00 O.UPF
C1 12.011d00 C.UPF
H1 1.008d00 H.UPF
N1 14.007d00 N.UPF
ATOMIC_POSITIONS {crystal}
Ti1      0.000123603383822d0     0.499897385958537d0     0.238512187198856d0
Ti1      0.500142521004230d0     0.250038178055688d0     0.238522014307695d0
O1       0.000095322930372d0     0.000084774873452d0     0.317452257936818d0
O1       0.500112315057126d0     0.000084209992886d0     0.290342007718641d0
O1       0.698270105622955d0     0.250236102495782d0     0.369213011426276d0
O1       0.301995368073695d0     0.249987007385122d0     0.369214717028816d0
Ti1      0.506429194244822d0     0.496963429838054d0     0.363961580467217d0
Ti1      0.007011244215998d0     0.249659797460218d0     0.368410438705953d0
O1       0.496335983366728d0     0.999160601542947d0     0.452170259795651d0
O1       0.999587620846717d0     0.999848609264913d0     0.421876164401555d0
O1       0.192441579296140d0     0.249354289859316d0     0.503638365803160d0
O1       0.800572304046246d0     0.249790973197497d0     0.502717832368382d0
Ti1      0.994489385947350d0     0.499616192596885d0     0.498261575057055d0
Ti1      0.494846701323340d0     0.249435973303534d0     0.497536264775849d0
O1       0.991929362407995d0     0.997889836015101d0     0.584354614677538d0
O1       0.498192088222596d0     0.999418520255151d0     0.556686512567311d0
O1       0.684039049897772d0     0.251507301150387d0     0.644376376346434d0
O1       0.301446520058541d0     0.250865663446091d0     0.643059297197544d0
Ti1      0.493296066130141d0     0.496740253432866d0     0.625700738404999d0
Ti1      0.992972507509199d0     0.222252817863457d0     0.636584155461732d0
O1       0.500093721748991d0     0.000084921243389d0     0.186906639369252d0
O1       0.994947731844720d0     0.996397266563375d0     0.684980165495711d0
O1       0.198268504441574d0     0.250236248865719d0     0.238667392858710d0
O1       0.801993766892314d0     0.249987153755059d0     0.238669098461250d0
Ti1      0.000123603383822d0     0.999897385958537d0     0.238512187198856d0
Ti1      0.500142521004230d0     0.750038178055688d0     0.238522014307695d0
O1       0.000095322930372d0     0.500084774873452d0     0.317452257936818d0
O1       0.500112315057126d0     0.500084209992886d0     0.290342007718641d0
O1       0.698270105622955d0     0.750236102495782d0     0.369213011426276d0
O1       0.301995368073695d0     0.749987007385122d0     0.369214717028816d0
Ti1      0.504016675986887d0     0.996865305594918d0     0.363901865098630d0
Ti1      0.006837464725831d0     0.748100828595051d0     0.368487178062688d0
O1       0.496749300758188d0     0.499524166832667d0     0.451805151652353d0
O1       0.999685633191815d0     0.500282375361328d0     0.422566607876327d0
O1       0.192779851138711d0     0.749457219031401d0     0.503787657363266d0
O1       0.800494435732379d0     0.749028992666518d0     0.503032771536840d0
Ti1      0.996329144863509d0     0.000055457395420d0     0.496567036711589d0
Ti1      0.494986845376499d0     0.748763675599205d0     0.497476839758706d0
O1       0.991980065527389d0     0.498372958434836d0     0.591822590499419d0
O1       0.496796657728713d0     0.498639635869672d0     0.554746607515642d0
O1       0.684279230374376d0     0.742722348847111d0     0.644440449276770d0
O1       0.301658713900997d0     0.744952125530849d0     0.642563868522141d0
Ti1      0.494962113042798d0     0.997497253658697d0     0.627851782921170d0
Ti1      0.997856985079199d0     0.760431806249475d0     0.631908929519764d0
O1       0.500093721748991d0     0.500084921243389d0     0.186906639369252d0
O1       0.198268504441574d0     0.750236248865719d0     0.238667392858710d0
O1       0.801993766892315d0     0.749987153755059d0     0.238669098461250d0
C1       0.110019387176751d0     0.505764567139426d0     0.751962661495994d0
O1       0.978797150845119d0     0.500985903878100d0     0.705401969163063d0
H1       0.158097457220448d0     0.677911351376081d0     0.759486000008719d0
H1       0.839480526711670d0     0.533420224444404d0     0.715607913570606d0
H1       0.027479319595228d0     0.437616901704511d0     0.785887948854484d0
H1       0.239613706356220d0     0.399245634578198d0     0.743072359140910d0
N1       0.569070474900187d0     0.034438375401244d0     0.778114647784613d0
N1       0.637892250936665d0     0.866083032045981d0     0.774617640091233d0
K_POINTS automatic
4 4 1  0 0 0 
