&CONTROL
  calculation='relax',
  prefix='calc',
  pseudo_dir='/storage/coda1/p-amedford6/0/shared/rich_project_chbe-medford/medford-share/data/pseudos_module/espresso/nninc/pbe/van',
  outdir='.',
  tefield=.true.,
  dipfield=.true.,
  tprnfor=.true.,
  disk_io='none',
/
&SYSTEM
  ibrav=0,
  celldm(1)=1.8897261245650618d0,
  nat=4,
  ntyp=2,
  ecutwfc=29.39945797996531d00,
  ecutrho=293.9945797996531d00,
  nbnd=14,
  occupations='smearing',
  smearing='fd',
  degauss=0.007349864494991328d00,
  input_dft='BEEF-vdW',
  edir=3,
  emaxpos=0.0d00,
  eopreg=0.025d00,
  eamp=0.0d00,
  nosym=.false.,
  noinv=.false.,
  nosym_evc=.false.,
  no_t_rev=.false.,
/
&ELECTRONS
  diagonalization='david',
  conv_thr=7.349864494991327e-08,
  mixing_beta=0.05d00,
  electron_maxstep=1000,
  startingwfc='atomic',
/
&IONS
  ion_dynamics='ipi',
/
&CELL
  cell_dynamics='ipi',
/
CELL_PARAMETERS alat
   10.813831000000000d0     0.000000000000000d0     0.000000000000000d0
    0.000000000000000d0    10.939731000000000d0     0.000000000000000d0
    0.000000000000000d0     0.000000000000000d0    10.116489000000000d0
ATOMIC_SPECIES
N1 14.007d00 N.UPF
H1 1.008d00 H.UPF
ATOMIC_POSITIONS {crystal}
N1       0.500000000000000d0     0.478524791880166d0     0.519191292552189d0
H1       0.500000000000000d0     0.564425532949576d0     0.480808707447811d0
H1       0.575258342764928d0     0.435574467050424d0     0.480808707447811d0
H1       0.424741657235072d0     0.435574467050424d0     0.480808707447811d0
K_POINTS automatic
4 4 1  0 0 0 
