&CONTROL
  calculation='relax',
  prefix='calc',
  pseudo_dir='/storage/coda1/p-amedford6/0/shared/rich_project_chbe-medford/medford-share/data/pseudos_module/espresso/nninc/pbe/van',
  outdir='.',
  tefield=.true.,
  dipfield=.true.,
  tprnfor=.true.,
  disk_io='none',
/
&SYSTEM
  ibrav=0,
  celldm(1)=1.8897261245650618d0,
  nat=53,
  ntyp=5,
  ecutwfc=29.39945797996531d00,
  ecutrho=293.9945797996531d00,
  nbnd=207,
  occupations='smearing',
  smearing='fd',
  degauss=0.007349864494991328d00,
  input_dft='BEEF-vdW',
  edir=3,
  emaxpos=0.9892836963609795d00,
  eopreg=0.025d00,
  eamp=0.0d00,
  nosym=.false.,
  noinv=.false.,
  nosym_evc=.false.,
  no_t_rev=.false.,
/
&ELECTRONS
  diagonalization='david',
  conv_thr=7.349864494991327e-08,
  mixing_beta=0.05d00,
  electron_maxstep=1000,
  startingpot='file',
  startingwfc='atomic',
/
&IONS
  ion_dynamics='ipi',
/
&CELL
  cell_dynamics='ipi',
/
CELL_PARAMETERS alat
    6.579727202290808d0     0.000000000000000d0     0.000000000000000d0
   -0.000775132442404d0     5.961596420607155d0     0.000000000000000d0
    0.000000000000000d0    -0.000000000000000d0    25.155947251439940d0
ATOMIC_SPECIES
Ti1 47.867d00 Ti.UPF
O1 15.999d00 O.UPF
N1 14.007d00 N.UPF
C1 12.011d00 C.UPF
H1 1.008d00 H.UPF
ATOMIC_POSITIONS {crystal}
Ti1      0.000123603383822d0     0.499897385958536d0     0.238512187198856d0
Ti1      0.500142521004230d0     0.250038178055688d0     0.238522014307695d0
O1       0.000095322930372d0     0.000084774873452d0     0.317452257936818d0
O1       0.500112315057126d0     0.000084209992886d0     0.290342007718641d0
O1       0.698270105622955d0     0.250236102495782d0     0.369213011426276d0
O1       0.301995368073695d0     0.249987007385122d0     0.369214717028816d0
Ti1      0.500198167309398d0     0.485761668506182d0     0.364758343030283d0
Ti1      0.000261424674789d0     0.248709163236136d0     0.368424970923767d0
O1       0.501659924141117d0     0.000454221941515d0     0.449965766251153d0
O1       0.001882992193933d0     0.999479849154423d0     0.422099495650131d0
O1       0.199845826495059d0     0.251941941208238d0     0.501711241410724d0
O1       0.807364022606480d0     0.250228966552813d0     0.502237361259023d0
Ti1      0.993411489225845d0     0.495480795858268d0     0.501217531896120d0
Ti1      0.489259158660586d0     0.250027737773010d0     0.495989101926824d0
O1       0.006596790124915d0     0.999837915398413d0     0.581623282744218d0
O1       0.503810613576767d0     0.001649166594601d0     0.551949150191164d0
O1       0.691909312274518d0     0.255078564363477d0     0.638991242895188d0
O1       0.314872883236095d0     0.248373505347320d0     0.635708871484819d0
Ti1      0.500622921646043d0     0.502236872934735d0     0.623422503250119d0
Ti1      0.003076357432328d0     0.218460862428564d0     0.635028818041176d0
O1       0.500093721748991d0     0.000084921243389d0     0.186906639369252d0
O1       0.990617419827779d0     0.000044851444010d0     0.681970804417638d0
O1       0.198268504441574d0     0.250236248865719d0     0.238667392858710d0
O1       0.801993766892314d0     0.249987153755059d0     0.238669098461250d0
Ti1      0.000123603383822d0     0.999897385958536d0     0.238512187198856d0
Ti1      0.500142521004230d0     0.750038178055688d0     0.238522014307695d0
O1       0.000095322930372d0     0.500084774873452d0     0.317452257936818d0
O1       0.500112315057126d0     0.500084209992886d0     0.290342007718641d0
O1       0.698270105622955d0     0.750236102495782d0     0.369213011426276d0
O1       0.301995368073695d0     0.749987007385122d0     0.369214717028816d0
Ti1      0.500001644927041d0     0.985370751416071d0     0.364779031055315d0
Ti1      0.000183276761494d0     0.748948988039575d0     0.368476322807288d0
O1       0.502413895230961d0     0.500423360761973d0     0.449933576553374d0
O1       0.001460782485842d0     0.499964783615161d0     0.422656139091726d0
O1       0.200062728911831d0     0.750160346659802d0     0.501685450715384d0
O1       0.807178840591574d0     0.749624723946438d0     0.502195324250394d0
Ti1      0.993859423735495d0     0.995343666153491d0     0.498750387729132d0
Ti1      0.489483302699762d0     0.749978795135935d0     0.495809126049147d0
O1       0.001101432638956d0     0.502629606693181d0     0.587397034848077d0
O1       0.501929415501711d0     0.500677867600781d0     0.551831160993896d0
O1       0.689090321658657d0     0.750892762972391d0     0.635569177914168d0
O1       0.316466430492510d0     0.751503184928093d0     0.637907073943031d0
Ti1      0.503898449836467d0     0.001950213692929d0     0.623716399550638d0
Ti1      0.996719274065306d0     0.749327964006967d0     0.633964256977927d0
O1       0.500093721748991d0     0.500084921243389d0     0.186906639369252d0
O1       0.198268504441574d0     0.750236248865719d0     0.238667392858710d0
O1       0.801993766892315d0     0.749987153755059d0     0.238669098461250d0
N1       0.064947389660577d0     0.400127526596832d0     0.714220370822921d0
C1       0.143955692987039d0     0.324409977446084d0     0.757608888898421d0
H1       0.164029101378387d0     0.432264438564994d0     0.791660753352706d0
H1       0.187358094867107d0     0.150280848596911d0     0.759032051129214d0
N1       0.000461871660241d0     0.607763329488539d0     0.707572355911088d0
H1       0.015589621908711d0     0.709955244152193d0     0.739990429646518d0
K_POINTS automatic
4 4 1  0 0 0 
