&CONTROL
  calculation='relax',
  prefix='calc',
  pseudo_dir='/storage/coda1/p-amedford6/0/shared/rich_project_chbe-medford/medford-share/data/pseudos_module/espresso/nninc/pbe/van',
  outdir='.',
  tefield=.true.,
  dipfield=.true.,
  tprnfor=.true.,
  disk_io='none',
/
&SYSTEM
  ibrav=0,
  celldm(1)=1.8897261245650618d0,
  nat=52,
  ntyp=5,
  ecutwfc=29.39945797996531d00,
  ecutrho=293.9945797996531d00,
  nbnd=207,
  occupations='smearing',
  smearing='fd',
  degauss=0.007349864494991328d00,
  input_dft='BEEF-vdW',
  edir=3,
  emaxpos=0.985697585398964d00,
  eopreg=0.025d00,
  eamp=0.0d00,
  nosym=.false.,
  noinv=.false.,
  nosym_evc=.false.,
  no_t_rev=.false.,
/
&ELECTRONS
  diagonalization='david',
  conv_thr=7.349864494991327e-08,
  mixing_beta=0.05d00,
  electron_maxstep=1000,
  startingwfc='atomic',
/
&IONS
  ion_dynamics='ipi',
/
&CELL
  cell_dynamics='ipi',
/
CELL_PARAMETERS alat
    6.579727202290808d0     0.000000000000000d0     0.000000000000000d0
   -0.000775132442404d0     5.961596420607155d0     0.000000000000000d0
    0.000000000000000d0    -0.000000000000000d0    25.155947251439940d0
ATOMIC_SPECIES
Ti1 47.867d00 Ti.UPF
O1 15.999d00 O.UPF
N1 14.007d00 N.UPF
C1 12.011d00 C.UPF
H1 1.008d00 H.UPF
ATOMIC_POSITIONS {crystal}
Ti1      0.000123603383822d0     0.499897385958536d0     0.238512187198856d0
Ti1      0.500142521004230d0     0.250038178055688d0     0.238522014307695d0
O1       0.000095322930372d0     0.000084774873452d0     0.317452257936818d0
O1       0.500112315057126d0     0.000084209992886d0     0.290342007718641d0
O1       0.698270105622955d0     0.250236102495782d0     0.369213011426276d0
O1       0.301995368073695d0     0.249987007385122d0     0.369214717028816d0
Ti1      0.500198167309398d0     0.485761668506182d0     0.364758343030283d0
Ti1      0.000261424674789d0     0.248709163236136d0     0.368424970923767d0
O1       0.498207644719314d0     0.001101869761564d0     0.449008039545205d0
O1       0.001882992193933d0     0.999479849154423d0     0.422099495650131d0
O1       0.199495008783945d0     0.250897064628068d0     0.502107067440324d0
O1       0.804336731863347d0     0.248875830508516d0     0.502033694388728d0
Ti1      0.986361835915294d0     0.500358383528293d0     0.508660908268538d0
Ti1      0.479314726512376d0     0.251617180499829d0     0.495444888273663d0
O1       0.999777509761755d0     0.995614747103275d0     0.581555263859390d0
O1       0.500595452801758d0     0.000371011887017d0     0.551398591860090d0
O1       0.684651090127427d0     0.248451299782737d0     0.635146513969849d0
O1       0.309080272081949d0     0.250488616113419d0     0.638572958107027d0
Ti1      0.506532579939855d0     0.500468981104205d0     0.623016884409822d0
Ti1      0.998362923285357d0     0.233907245619767d0     0.635676179540752d0
O1       0.500093721748991d0     0.000084921243389d0     0.186906639369252d0
O1       0.987652136613127d0     0.005961375644198d0     0.684143745492817d0
O1       0.198268504441574d0     0.250236248865719d0     0.238667392858710d0
O1       0.801993766892314d0     0.249987153755059d0     0.238669098461250d0
Ti1      0.000123603383822d0     0.999897385958536d0     0.238512187198856d0
Ti1      0.500142521004230d0     0.750038178055688d0     0.238522014307695d0
O1       0.000095322930372d0     0.500084774873452d0     0.317452257936818d0
O1       0.500112315057126d0     0.500084209992886d0     0.290342007718641d0
O1       0.698270105622955d0     0.750236102495782d0     0.369213011426276d0
O1       0.301995368073695d0     0.749987007385122d0     0.369214717028816d0
Ti1      0.500001644927041d0     0.985370751416071d0     0.364779031055315d0
Ti1      0.000183276761494d0     0.748948988039575d0     0.368476322807288d0
O1       0.498252327224974d0     0.500841370459558d0     0.448939545415294d0
O1       0.001460782485842d0     0.499964783615161d0     0.422656139091726d0
O1       0.199109221791024d0     0.749941847302019d0     0.501811027473193d0
O1       0.803768698591269d0     0.751304883170936d0     0.501745548049277d0
Ti1      0.983118242959307d0     0.998765395121932d0     0.505798384770548d0
Ti1      0.479426296415237d0     0.751850806339356d0     0.495228665250042d0
O1       0.995435921724403d0     0.500325183017682d0     0.582129423358911d0
O1       0.502333270038560d0     0.500593935987733d0     0.551240097568069d0
O1       0.681236976407450d0     0.748934624305755d0     0.638797806562475d0
O1       0.309267063663544d0     0.748504489722977d0     0.634760443632449d0
Ti1      0.500451128145220d0     0.000285520886259d0     0.623063145348305d0
Ti1      0.015338195514927d0     0.747187079226604d0     0.645391540852091d0
O1       0.500093721748991d0     0.500084921243389d0     0.186906639369252d0
O1       0.198268504441574d0     0.750236248865719d0     0.238667392858710d0
O1       0.801993766892315d0     0.749987153755059d0     0.238669098461250d0
N1       0.099252148143582d0     0.590513121858206d0     0.719979907650379d0
C1       0.176291631823859d0     0.538090295089990d0     0.765226740142158d0
H1       0.275729012509749d0     0.657350014458304d0     0.784488531428676d0
H1       0.137909641485172d0     0.379200194168315d0     0.783895941322449d0
N1       0.976990605317650d0     0.476002110578336d0     0.690126981990266d0
K_POINTS automatic
4 4 1  0 0 0 
