&CONTROL
  calculation='relax',
  prefix='calc',
  pseudo_dir='/storage/coda1/p-amedford6/0/shared/rich_project_chbe-medford/medford-share/data/pseudos_module/espresso/nninc/pbe/van',
  outdir='.',
  tefield=.true.,
  dipfield=.true.,
  tprnfor=.true.,
  disk_io='none',
/
&SYSTEM
  ibrav=0,
  celldm(1)=1.8897261245650618d0,
  nat=55,
  ntyp=5,
  ecutwfc=29.39945797996531d00,
  ecutrho=293.9945797996531d00,
  nbnd=209,
  occupations='smearing',
  smearing='fd',
  degauss=0.007349864494991328d00,
  input_dft='BEEF-vdW',
  edir=3,
  emaxpos=0.9873156031550339d00,
  eopreg=0.025d00,
  eamp=0.0d00,
  nosym=.false.,
  noinv=.false.,
  nosym_evc=.false.,
  no_t_rev=.false.,
/
&ELECTRONS
  diagonalization='david',
  conv_thr=7.349864494991327e-08,
  mixing_beta=0.05d00,
  electron_maxstep=1000,
  startingpot='file',
  startingwfc='atomic',
/
&IONS
  ion_dynamics='ipi',
/
&CELL
  cell_dynamics='ipi',
/
CELL_PARAMETERS alat
    6.579727202290808d0     0.000000000000000d0     0.000000000000000d0
   -0.000775132442404d0     5.961596420607155d0     0.000000000000000d0
    0.000000000000000d0    -0.000000000000000d0    25.155947251439940d0
ATOMIC_SPECIES
Ti1 47.867d00 Ti.UPF
O1 15.999d00 O.UPF
N1 14.007d00 N.UPF
C1 12.011d00 C.UPF
H1 1.008d00 H.UPF
ATOMIC_POSITIONS {crystal}
Ti1      0.000123603383822d0     0.499897385958536d0     0.238512187198856d0
Ti1      0.500142521004230d0     0.250038178055688d0     0.238522014307695d0
O1       0.000095322930372d0     0.000084774873452d0     0.317452257936818d0
O1       0.500112315057126d0     0.000084209992886d0     0.290342007718641d0
O1       0.698270105622955d0     0.250236102495782d0     0.369213011426276d0
O1       0.301995368073695d0     0.249987007385122d0     0.369214717028816d0
Ti1      0.500198167309398d0     0.485761668506182d0     0.364758343030283d0
Ti1      0.000261424674789d0     0.248709163236136d0     0.368424970923767d0
O1       0.500001325302024d0     0.000149600396041d0     0.451515478228173d0
O1       0.001882992193933d0     0.999479849154423d0     0.422099495650131d0
O1       0.196712184751769d0     0.251560321753044d0     0.502528982590309d0
O1       0.804014935971927d0     0.251420407310641d0     0.502114581028396d0
Ti1      0.004414854934751d0     0.497810046231594d0     0.499086367054469d0
Ti1      0.506214572715172d0     0.247603729398977d0     0.497574091571241d0
O1       0.000176075257869d0     0.008195836745386d0     0.582285797971411d0
O1       0.501947166766363d0     0.004749726440947d0     0.556182934534615d0
O1       0.691451426126865d0     0.258858206400384d0     0.640835485039121d0
O1       0.307069914677866d0     0.258620529263625d0     0.640606554925805d0
Ti1      0.499893298184448d0     0.504495155957002d0     0.624110942577792d0
Ti1      0.001412160049815d0     0.240558484452921d0     0.636734072854389d0
O1       0.500093721748991d0     0.000084921243389d0     0.186906639369252d0
O1       0.999485468690453d0     0.985079128659505d0     0.683315480579473d0
O1       0.198268504441574d0     0.250236248865719d0     0.238667392858710d0
O1       0.801993766892314d0     0.249987153755059d0     0.238669098461250d0
Ti1      0.000123603383822d0     0.999897385958536d0     0.238512187198856d0
Ti1      0.500142521004230d0     0.750038178055688d0     0.238522014307695d0
O1       0.000095322930372d0     0.500084774873452d0     0.317452257936818d0
O1       0.500112315057126d0     0.500084209992886d0     0.290342007718641d0
O1       0.698270105622955d0     0.750236102495782d0     0.369213011426276d0
O1       0.301995368073695d0     0.749987007385122d0     0.369214717028816d0
Ti1      0.500001644927041d0     0.985370751416071d0     0.364779031055315d0
Ti1      0.000183276761494d0     0.748948988039575d0     0.368476322807288d0
O1       0.500607628431919d0     0.500901517057750d0     0.451335063292173d0
O1       0.001460782485842d0     0.499964783615161d0     0.422656139091726d0
O1       0.196291519855379d0     0.750913439604803d0     0.503337227469066d0
O1       0.804076171710974d0     0.751542178942424d0     0.502824503923622d0
Ti1      0.004394110072575d0     0.998952351290119d0     0.497089941487310d0
Ti1      0.506225172318528d0     0.749025474857905d0     0.497216381996867d0
O1       0.998486571920040d0     0.496496036113063d0     0.589381479099155d0
O1       0.501138104866522d0     0.501979454703095d0     0.553179209772864d0
O1       0.691370649777719d0     0.745975095734987d0     0.640895264329302d0
O1       0.308308861081051d0     0.748023457122919d0     0.639482194596521d0
Ti1      0.501075448615698d0     0.006853754879868d0     0.628834210837049d0
Ti1      0.003191557527600d0     0.774938890503955d0     0.628956268404537d0
O1       0.500093721748991d0     0.500084921243389d0     0.186906639369252d0
O1       0.198268504441574d0     0.750236248865719d0     0.238667392858710d0
O1       0.801993766892315d0     0.749987153755059d0     0.238669098461250d0
N1       0.985758748364665d0     0.462027399060844d0     0.708936279938805d0
C1       0.111988660858091d0     0.464032352401140d0     0.748794600357974d0
H1       0.068218224043351d0     0.526425034538604d0     0.787724566940815d0
H1       0.264442139382047d0     0.399490774290800d0     0.743417717177257d0
H1       0.846144890085676d0     0.518590480923908d0     0.718564128194182d0
O1       0.502642298368568d0     0.016824015142521d0     0.726316084982767d0
H1       0.630851478148767d0     0.940799862316979d0     0.732977947820852d0
H1       0.393887685134567d0     0.913821096324409d0     0.735683811504976d0
K_POINTS automatic
4 4 1  0 0 0 
