&CONTROL
  calculation='relax',
  prefix='calc',
  pseudo_dir='/storage/coda1/p-amedford6/0/shared/rich_project_chbe-medford/medford-share/data/pseudos_module/espresso/nninc/pbe/van',
  outdir='.',
  tefield=.true.,
  dipfield=.true.,
  tprnfor=.true.,
  disk_io='none',
/
&SYSTEM
  ibrav=0,
  celldm(1)=1.8897261245650618d0,
  nat=53,
  ntyp=5,
  ecutwfc=29.39945797996531d00,
  ecutrho=293.9945797996531d00,
  nbnd=205,
  occupations='smearing',
  smearing='fd',
  degauss=0.007349864494991328d00,
  input_dft='BEEF-vdW',
  edir=3,
  emaxpos=0.983821426425969d00,
  eopreg=0.025d00,
  eamp=0.0d00,
  nosym=.false.,
  noinv=.false.,
  nosym_evc=.false.,
  no_t_rev=.false.,
/
&ELECTRONS
  diagonalization='david',
  conv_thr=7.349864494991327e-08,
  mixing_beta=0.05d00,
  electron_maxstep=1000,
  startingwfc='atomic',
/
&IONS
  ion_dynamics='ipi',
/
&CELL
  cell_dynamics='ipi',
/
CELL_PARAMETERS alat
    6.579727202290808d0     0.000000000000000d0     0.000000000000000d0
   -0.000775132442404d0     5.961596420607155d0     0.000000000000000d0
    0.000000000000000d0    -0.000000000000000d0    25.155947251439940d0
ATOMIC_SPECIES
Ti1 47.867d00 Ti.UPF
O1 15.999d00 O.UPF
N1 14.007d00 N.UPF
C1 12.011d00 C.UPF
H1 1.008d00 H.UPF
ATOMIC_POSITIONS {crystal}
Ti1      0.000123603383822d0     0.499897385958536d0     0.238512187198856d0
Ti1      0.500142521004230d0     0.250038178055688d0     0.238522014307695d0
O1       0.000095322930372d0     0.000084774873452d0     0.317452257936818d0
O1       0.500112315057126d0     0.000084209992886d0     0.290342007718641d0
O1       0.698270105622955d0     0.250236102495782d0     0.369213011426276d0
O1       0.301995368073695d0     0.249987007385122d0     0.369214717028816d0
Ti1      0.500198167309398d0     0.485761668506182d0     0.364758343030283d0
Ti1      0.000261424674789d0     0.248709163236136d0     0.368424970923767d0
O1       0.500651907174657d0     0.999108508588158d0     0.453231969604303d0
O1       0.001882992193933d0     0.999479849154423d0     0.422099495650131d0
O1       0.196567033000520d0     0.248336133554549d0     0.505291692504576d0
O1       0.805912780479303d0     0.248733994767403d0     0.504464338776959d0
Ti1      0.001846001232340d0     0.497309341181854d0     0.497073710729711d0
Ti1      0.503141504359023d0     0.246875952342731d0     0.499073432336078d0
O1       0.997671327353436d0     0.982293621543127d0     0.585098154826500d0
O1       0.504530123984087d0     0.997857995099651d0     0.557702896653220d0
O1       0.690713168793484d0     0.253917873035414d0     0.644501443470959d0
O1       0.309328165631146d0     0.251169142091575d0     0.642361340341541d0
Ti1      0.499202581958486d0     0.502239676756091d0     0.627847975207380d0
Ti1      0.004196150540463d0     0.214026534083315d0     0.630861110729003d0
O1       0.500093721748991d0     0.000084921243389d0     0.186906639369252d0
O1       0.000618649073345d0     0.019138817264622d0     0.686648849650733d0
O1       0.198268504441574d0     0.250236248865719d0     0.238667392858710d0
O1       0.801993766892314d0     0.249987153755059d0     0.238669098461250d0
Ti1      0.000123603383822d0     0.999897385958536d0     0.238512187198856d0
Ti1      0.500142521004230d0     0.750038178055688d0     0.238522014307695d0
O1       0.000095322930372d0     0.500084774873452d0     0.317452257936818d0
O1       0.500112315057126d0     0.500084209992886d0     0.290342007718641d0
O1       0.698270105622955d0     0.750236102495782d0     0.369213011426276d0
O1       0.301995368073695d0     0.749987007385122d0     0.369214717028816d0
Ti1      0.500001644927041d0     0.985370751416071d0     0.364779031055315d0
Ti1      0.000183276761494d0     0.748948988039575d0     0.368476322807288d0
O1       0.500936571441935d0     0.497447234207124d0     0.453001791167280d0
O1       0.001460782485842d0     0.499964783615161d0     0.422656139091726d0
O1       0.197410398374201d0     0.746466827487905d0     0.503766048082794d0
O1       0.805745780014430d0     0.746205780140481d0     0.503296625742873d0
Ti1      0.004262142655526d0     0.994571763473815d0     0.497483798978965d0
Ti1      0.503325122597008d0     0.748009718540371d0     0.498949301300134d0
O1       0.998090381891745d0     0.504160308122006d0     0.597256328154121d0
O1       0.502612617524934d0     0.501317156075621d0     0.556464956144795d0
O1       0.687154714755644d0     0.749443203121693d0     0.646634454474576d0
O1       0.309153624422169d0     0.749436618515398d0     0.645147043940968d0
Ti1      0.505497295111733d0     0.001449589116966d0     0.629258830274933d0
Ti1      0.007538423324005d0     0.755710295293207d0     0.640745353349341d0
O1       0.500093721748991d0     0.500084921243389d0     0.186906639369252d0
O1       0.198268504441574d0     0.750236248865719d0     0.238667392858710d0
O1       0.801993766892315d0     0.749987153755059d0     0.238669098461250d0
N1       0.942994125175550d0     0.561487602133400d0     0.725255276235815d0
C1       0.112333415764191d0     0.518128213906347d0     0.756860978920831d0
H1       0.171853716257273d0     0.653589771276784d0     0.780736213482686d0
H1       0.179228064629938d0     0.355013394380041d0     0.755279988831153d0
H1       0.855875579147360d0     0.692029767706985d0     0.737790284354417d0
H1       0.852390842089498d0     0.425683337644446d0     0.718641350562330d0
K_POINTS automatic
4 4 1  0 0 0 
