&CONTROL
  calculation='relax',
  prefix='calc',
  pseudo_dir='/storage/coda1/p-amedford6/0/shared/rich_project_chbe-medford/medford-share/data/pseudos_module/espresso/nninc/pbe/van',
  outdir='.',
  tefield=.true.,
  dipfield=.true.,
  tprnfor=.true.,
  disk_io='none',
/
&SYSTEM
  ibrav=0,
  celldm(1)=1.8897261245650618d0,
  nat=56,
  ntyp=5,
  ecutwfc=29.39945797996531d00,
  ecutrho=293.9945797996531d00,
  nbnd=209,
  occupations='smearing',
  smearing='fd',
  degauss=0.007349864494991328d00,
  input_dft='BEEF-vdW',
  edir=3,
  emaxpos=0.9988422138498037d00,
  eopreg=0.025d00,
  eamp=0.0d00,
  nosym=.false.,
  noinv=.false.,
  nosym_evc=.false.,
  no_t_rev=.false.,
/
&ELECTRONS
  diagonalization='david',
  conv_thr=7.349864494991327e-08,
  mixing_beta=0.05d00,
  electron_maxstep=1000,
  startingpot='file',
  startingwfc='atomic',
/
&IONS
  ion_dynamics='ipi',
/
&CELL
  cell_dynamics='ipi',
/
CELL_PARAMETERS alat
    6.579727202290808d0     0.000000000000000d0     0.000000000000000d0
   -0.000775132442404d0     5.961596420607155d0     0.000000000000000d0
    0.000000000000000d0    -0.000000000000000d0    25.155947251439940d0
ATOMIC_SPECIES
Ti1 47.867d00 Ti.UPF
O1 15.999d00 O.UPF
N1 14.007d00 N.UPF
C1 12.011d00 C.UPF
H1 1.008d00 H.UPF
ATOMIC_POSITIONS {crystal}
Ti1      0.000123603383822d0     0.499897385958536d0     0.238512187198856d0
Ti1      0.500142521004230d0     0.250038178055688d0     0.238522014307695d0
O1       0.000095322930372d0     0.000084774873452d0     0.317452257936818d0
O1       0.500112315057126d0     0.000084209992886d0     0.290342007718641d0
O1       0.698270105622955d0     0.250236102495782d0     0.369213011426276d0
O1       0.301995368073695d0     0.249987007385122d0     0.369214717028816d0
Ti1      0.500198167309398d0     0.485761668506182d0     0.364758343030283d0
Ti1      0.000261424674789d0     0.248709163236136d0     0.368424970923767d0
O1       0.497201146466143d0     0.004854498171983d0     0.452432828200001d0
O1       0.001882992193933d0     0.999479849154423d0     0.422099495650131d0
O1       0.192925982530274d0     0.254332555214353d0     0.505339606316105d0
O1       0.802177688989990d0     0.254289519564628d0     0.504101459671529d0
Ti1      0.996745314106686d0     0.503751816401507d0     0.497050767359722d0
Ti1      0.498401474893929d0     0.253760124369933d0     0.498393763463979d0
O1       0.991168595006444d0     0.988898369948987d0     0.583741229454760d0
O1       0.499254517205395d0     0.001676253783267d0     0.556653933527707d0
O1       0.682190771992095d0     0.261803874001154d0     0.642557664813142d0
O1       0.299885719061684d0     0.258838213491463d0     0.639623249207568d0
Ti1      0.492066045386553d0     0.508407097571409d0     0.627000964688789d0
Ti1      0.996324781638523d0     0.227113745290652d0     0.628293426733969d0
O1       0.500093721748991d0     0.000084921243389d0     0.186906639369252d0
O1       0.989764081263955d0     0.036330975386223d0     0.684589730803715d0
O1       0.198268504441574d0     0.250236248865719d0     0.238667392858710d0
O1       0.801993766892314d0     0.249987153755059d0     0.238669098461250d0
Ti1      0.000123603383822d0     0.999897385958536d0     0.238512187198856d0
Ti1      0.500142521004230d0     0.750038178055688d0     0.238522014307695d0
O1       0.000095322930372d0     0.500084774873452d0     0.317452257936818d0
O1       0.500112315057126d0     0.500084209992886d0     0.290342007718641d0
O1       0.698270105622955d0     0.750236102495782d0     0.369213011426276d0
O1       0.301995368073695d0     0.749987007385122d0     0.369214717028816d0
Ti1      0.500001644927041d0     0.985370751416071d0     0.364779031055315d0
Ti1      0.000183276761494d0     0.748948988039575d0     0.368476322807288d0
O1       0.497030762749761d0     0.501739260282346d0     0.452227124132646d0
O1       0.001460782485842d0     0.499964783615161d0     0.422656139091726d0
O1       0.193576020006506d0     0.751912325188147d0     0.503510983767815d0
O1       0.801676379090660d0     0.751971354448537d0     0.502148555508655d0
Ti1      0.999785028460770d0     0.001325761826851d0     0.497006645250858d0
Ti1      0.498350783097129d0     0.753241091558524d0     0.498037831671519d0
O1       0.988449756926764d0     0.517056081464732d0     0.595754103743708d0
O1       0.498927292828170d0     0.509100862093941d0     0.555764387699262d0
O1       0.681032996922284d0     0.756466560946695d0     0.647195206387375d0
O1       0.298612645604930d0     0.757613714536946d0     0.644877576038632d0
Ti1      0.495614109116829d0     0.008430290577325d0     0.628075322300855d0
Ti1      0.995591597331213d0     0.768688273773898d0     0.639827731903223d0
O1       0.500093721748991d0     0.500084921243389d0     0.186906639369252d0
O1       0.198268504441574d0     0.750236248865719d0     0.238667392858710d0
O1       0.801993766892315d0     0.749987153755059d0     0.238669098461250d0
N1       0.134493237496398d0     0.547415812327999d0     0.759841031350596d0
N1       0.965217276389781d0     0.570271256075565d0     0.723040122373481d0
C1       0.196558520068115d0     0.765425681014854d0     0.780846564619639d0
H1       0.069384228566233d0     0.859333115671706d0     0.799241695599048d0
H1       0.313182013826991d0     0.735008086852059d0     0.810777788330355d0
H1       0.258758926329867d0     0.867860896048609d0     0.749139948674139d0
H1       0.085597831858598d0     0.450657489932111d0     0.790620644766097d0
H1       0.851959330309197d0     0.668060359423713d0     0.738928829794173d0
H1       0.905374667984624d0     0.413055397102121d0     0.719264738295746d0
K_POINTS automatic
4 4 1  0 0 0 
