&CONTROL
  calculation='relax',
  prefix='calc',
  pseudo_dir='/storage/coda1/p-amedford6/0/shared/rich_project_chbe-medford/medford-share/data/pseudos_module/espresso/nninc/pbe/van',
  outdir='.',
  tefield=.true.,
  dipfield=.true.,
  tprnfor=.true.,
  disk_io='none',
/
&SYSTEM
  ibrav=0,
  celldm(1)=1.8897261245650618d0,
  nat=54,
  ntyp=5,
  ecutwfc=29.39945797996531d00,
  ecutrho=293.9945797996531d00,
  nbnd=213,
  occupations='smearing',
  smearing='fd',
  degauss=0.007349864494991328d00,
  input_dft='BEEF-vdW',
  edir=3,
  emaxpos=0.9889272984910477d00,
  eopreg=0.025d00,
  eamp=0.0d00,
  nosym=.false.,
  noinv=.false.,
  nosym_evc=.false.,
  no_t_rev=.false.,
/
&ELECTRONS
  diagonalization='david',
  conv_thr=7.349864494991327e-08,
  mixing_beta=0.05d00,
  electron_maxstep=1000,
  startingpot='file',
  startingwfc='atomic',
/
&IONS
  ion_dynamics='ipi',
/
&CELL
  cell_dynamics='ipi',
/
CELL_PARAMETERS alat
    6.579727202290808d0     0.000000000000000d0     0.000000000000000d0
   -0.000775132442404d0     5.961596420607155d0     0.000000000000000d0
    0.000000000000000d0    -0.000000000000000d0    25.155947251439940d0
ATOMIC_SPECIES
O1 15.999d00 O.UPF
Ti1 47.867d00 Ti.UPF
C1 12.011d00 C.UPF
H1 1.008d00 H.UPF
N1 14.007d00 N.UPF
ATOMIC_POSITIONS {crystal}
O1       0.500093721748991d0     0.000084921243389d0     0.186906639369252d0
O1       0.500093721748991d0     0.500084921243389d0     0.186906639369252d0
Ti1      0.000123603383822d0     0.499897385958537d0     0.238512187198856d0
Ti1      0.000123603383822d0     0.999897385958537d0     0.238512187198856d0
Ti1      0.500142521004230d0     0.250038178055688d0     0.238522014307695d0
Ti1      0.500142521004230d0     0.750038178055688d0     0.238522014307695d0
O1       0.198268504441574d0     0.250236248865719d0     0.238667392858710d0
O1       0.198268504441574d0     0.750236248865719d0     0.238667392858710d0
O1       0.801993766892314d0     0.249987153755059d0     0.238669098461250d0
O1       0.801993766892315d0     0.749987153755059d0     0.238669098461250d0
O1       0.500112315057126d0     0.000084209992886d0     0.290342007718641d0
O1       0.500112315057126d0     0.500084209992886d0     0.290342007718641d0
O1       0.000095322930372d0     0.000084774873452d0     0.317452257936818d0
O1       0.000095322930372d0     0.500084774873452d0     0.317452257936818d0
Ti1      0.491674347207989d0     0.010211137159403d0     0.364816383570273d0
Ti1      0.490923711837968d0     0.510766492132020d0     0.366745273848229d0
Ti1      0.988508118945824d0     0.751324712282473d0     0.371361090253790d0
O1       0.698270105622955d0     0.250236102495782d0     0.369213011426276d0
O1       0.698270105622955d0     0.750236102495782d0     0.369213011426276d0
O1       0.301995368073695d0     0.249987007385122d0     0.369214717028816d0
O1       0.301995368073695d0     0.749987007385122d0     0.369214717028816d0
Ti1      0.988630834854541d0     0.259697494902746d0     0.370693085351201d0
O1       0.998726408851072d0     0.501439364865167d0     0.418847917295540d0
O1       0.999917923922420d0     0.001146099193675d0     0.420766127091159d0
O1       0.497604252003501d0     0.494351533047369d0     0.448660956181564d0
O1       0.497857806595176d0     0.002686818722593d0     0.449422630909364d0
Ti1      0.501943395094912d0     0.259261709391868d0     0.494230383457967d0
Ti1      0.005804125909158d0     0.009376513644141d0     0.498206707306003d0
Ti1      0.499617951079000d0     0.779827342123506d0     0.503562873864912d0
O1       0.191215416028549d0     0.250489743273686d0     0.501965209418998d0
O1       0.804476918519201d0     0.251076523626430d0     0.501396578052735d0
O1       0.190117342787538d0     0.750814445737192d0     0.502322489243292d0
O1       0.803875662789160d0     0.749142616149165d0     0.501867249693348d0
Ti1      0.992820962034969d0     0.509032766790980d0     0.509117652431001d0
O1       0.497990939011407d0     0.498784805467458d0     0.552055869379205d0
O1       0.498523900128465d0     0.996172703024676d0     0.551718016269431d0
O1       0.994214925411768d0     0.500075729095617d0     0.584062671818056d0
O1       0.995961308959082d0     0.001382053230567d0     0.583655005607082d0
Ti1      0.496563027203090d0     0.497577283827756d0     0.622849373367866d0
Ti1      0.501386068405043d0     0.997064468943873d0     0.649980631777335d0
Ti1      0.002235460528344d0     0.764863429419798d0     0.633128456746444d0
O1       0.685901832662042d0     0.740945859680439d0     0.638313749882188d0
O1       0.301342487121561d0     0.741559997926401d0     0.637640823760872d0
O1       0.683256464503731d0     0.251615421424666d0     0.640272229986028d0
O1       0.300693227040994d0     0.255332422259370d0     0.638493966372835d0
Ti1      0.004120644424072d0     0.232651583392123d0     0.637809974607092d0
O1       0.993763902596814d0     0.996621139891556d0     0.683341391806420d0
O1       0.990603072722072d0     0.498862884621707d0     0.690780518138139d0
C1       0.908039478464006d0     0.532878769676256d0     0.738851616040925d0
H1       0.886772758979975d0     0.699586615810224d0     0.754656364782204d0
N1       0.849413012499531d0     0.363711926236735d0     0.767227982612321d0
N1       0.796393246844402d0     0.207899983457048d0     0.790947957612843d0
O1       0.489248252520969d0     0.986886837113102d0     0.721287164026981d0
H1       0.562742992736347d0     0.067208999347295d0     0.749110396178114d0
K_POINTS automatic
4 4 1  0 0 0 
