&CONTROL
  calculation='relax',
  prefix='calc',
  pseudo_dir='/storage/coda1/p-amedford6/0/shared/rich_project_chbe-medford/medford-share/data/pseudos_module/espresso/nninc/pbe/van',
  outdir='.',
  tefield=.true.,
  dipfield=.true.,
  tprnfor=.true.,
  disk_io='none',
/
&SYSTEM
  ibrav=0,
  celldm(1)=1.8897261245650618d0,
  nat=53,
  ntyp=4,
  ecutwfc=29.39945797996531d00,
  ecutrho=293.9945797996531d00,
  nbnd=206,
  occupations='smearing',
  smearing='fd',
  degauss=0.007349864494991328d00,
  input_dft='BEEF-vdW',
  edir=3,
  emaxpos=0.9675977281138302d00,
  eopreg=0.025d00,
  eamp=0.0d00,
  nosym=.false.,
  noinv=.false.,
  nosym_evc=.false.,
  no_t_rev=.false.,
/
&ELECTRONS
  diagonalization='david',
  conv_thr=7.349864494991327e-08,
  mixing_beta=0.05d00,
  electron_maxstep=1000,
  startingpot='file',
  startingwfc='atomic',
/
&IONS
  ion_dynamics='ipi',
/
&CELL
  cell_dynamics='ipi',
/
CELL_PARAMETERS alat
    6.579727202290808d0     0.000000000000000d0     0.000000000000000d0
   -0.000775132442404d0     5.961596420607155d0     0.000000000000000d0
    0.000000000000000d0    -0.000000000000000d0    25.155947251439940d0
ATOMIC_SPECIES
Ti1 47.867d00 Ti.UPF
O1 15.999d00 O.UPF
H1 1.008d00 H.UPF
N1 14.007d00 N.UPF
ATOMIC_POSITIONS {crystal}
Ti1      0.000123603383822d0     0.499897385958536d0     0.238512187198856d0
Ti1      0.500142521004230d0     0.250038178055688d0     0.238522014307695d0
O1       0.000095322930372d0     0.000084774873452d0     0.317452257936818d0
O1       0.500112315057126d0     0.000084209992886d0     0.290342007718641d0
O1       0.698270105622955d0     0.250236102495782d0     0.369213011426276d0
O1       0.301995368073695d0     0.249987007385122d0     0.369214717028816d0
Ti1      0.500198167309398d0     0.485761668506182d0     0.364758343030283d0
Ti1      0.000047227176924d0     0.248202328504985d0     0.368179319740285d0
O1       0.502159947801616d0     0.999246391259248d0     0.451937843365910d0
O1       0.000818320573733d0     0.999841454324242d0     0.421961657565696d0
O1       0.198087747048251d0     0.250340397361307d0     0.503403388054943d0
O1       0.806277872781461d0     0.250455802308881d0     0.503382658842334d0
Ti1      0.003415571832640d0     0.498218984917278d0     0.497005943797761d0
Ti1      0.504753879803001d0     0.249159785303309d0     0.497557257180628d0
O1       0.001806034294073d0     0.998865562052660d0     0.584158691082641d0
O1       0.502563403542515d0     0.999363733932266d0     0.556253578731066d0
O1       0.690040820201264d0     0.251225373717338d0     0.643968918908680d0
O1       0.310826856910868d0     0.252543669856574d0     0.643633225179393d0
Ti1      0.502105349793928d0     0.499099790529775d0     0.625576167242726d0
Ti1      0.010197176888946d0     0.226689055308271d0     0.635457892679384d0
O1       0.500093721748991d0     0.000084921243389d0     0.186906639369252d0
O1       0.002688564549212d0     0.999269880980519d0     0.685271501684678d0
O1       0.198268504441574d0     0.250236248865719d0     0.238667392858710d0
O1       0.801993766892314d0     0.249987153755059d0     0.238669098461250d0
Ti1      0.000123603383822d0     0.999897385958536d0     0.238512187198856d0
Ti1      0.500142521004230d0     0.750038178055688d0     0.238522014307695d0
O1       0.000095322930372d0     0.500084774873452d0     0.317452257936818d0
O1       0.500112315057126d0     0.500084209992886d0     0.290342007718641d0
O1       0.698270105622955d0     0.750236102495782d0     0.369213011426276d0
O1       0.301995368073695d0     0.749987007385122d0     0.369214717028816d0
Ti1      0.500001644927041d0     0.985370751416071d0     0.364779031055315d0
Ti1      0.000001550054076d0     0.748887303121652d0     0.368188422459168d0
O1       0.502153376563525d0     0.499268731223806d0     0.451655094836137d0
O1       0.001045955093134d0     0.499880800141620d0     0.422460897117503d0
O1       0.198059662379239d0     0.748589862189384d0     0.503317914115220d0
O1       0.806266485048899d0     0.748492371961486d0     0.503467927856192d0
Ti1      0.003803758328456d0     0.998345125600403d0     0.497073313189459d0
Ti1      0.504265242028878d0     0.748779963274601d0     0.497530043169205d0
O1       0.002093924710796d0     0.498884338818416d0     0.594947159216514d0
O1       0.502633352440808d0     0.499311491416856d0     0.554690232404102d0
O1       0.693498554250381d0     0.745918939128428d0     0.643672923362263d0
O1       0.314052710092288d0     0.747001088455408d0     0.643735442474587d0
Ti1      0.502736349282965d0     0.999059723105975d0     0.627523792580612d0
Ti1      0.995036313028252d0     0.766338835974389d0     0.634198513099270d0
O1       0.500093721748991d0     0.500084921243389d0     0.186906639369252d0
O1       0.198268504441574d0     0.750236248865719d0     0.238667392858710d0
O1       0.801993766892315d0     0.749987153755059d0     0.238669098461250d0
H1       0.942240354541623d0     0.712603450084799d0     0.745011332681215d0
H1       0.171559172021229d0     0.644050830270852d0     0.722357938012364d0
N1       0.020100352243194d0     0.618830777646749d0     0.718400108501706d0
N1       0.977526482029526d0     0.384002167785164d0     0.719358588949203d0
H1       0.825079705960643d0     0.358087565728119d0     0.721435204154408d0
H1       0.049204501809178d0     0.294885409694526d0     0.748288816858408d0
K_POINTS automatic
4 4 1  0 0 0 
