&CONTROL
  calculation='relax',
  prefix='calc',
  pseudo_dir='/storage/coda1/p-amedford6/0/shared/rich_project_chbe-medford/medford-share/data/pseudos_module/espresso/nninc/pbe/van',
  outdir='.',
  tefield=.true.,
  dipfield=.true.,
  tprnfor=.true.,
  disk_io='none',
/
&SYSTEM
  ibrav=0,
  celldm(1)=1.8897261245650618d0,
  nat=55,
  ntyp=4,
  ecutwfc=29.39945797996531d00,
  ecutrho=293.9945797996531d00,
  nbnd=209,
  occupations='smearing',
  smearing='fd',
  degauss=0.007349864494991328d00,
  input_dft='BEEF-vdW',
  edir=3,
  emaxpos=0.9629024455263611d00,
  eopreg=0.025d00,
  eamp=0.0d00,
  nosym=.false.,
  noinv=.false.,
  nosym_evc=.false.,
  no_t_rev=.false.,
/
&ELECTRONS
  diagonalization='david',
  conv_thr=7.349864494991327e-08,
  mixing_beta=0.05d00,
  electron_maxstep=1000,
  startingpot='file',
  startingwfc='atomic',
/
&IONS
  ion_dynamics='ipi',
/
&CELL
  cell_dynamics='ipi',
/
CELL_PARAMETERS alat
    6.579727202290808d0     0.000000000000000d0     0.000000000000000d0
   -0.000775132442404d0     5.961596420607155d0     0.000000000000000d0
    0.000000000000000d0    -0.000000000000000d0    25.155947251439940d0
ATOMIC_SPECIES
Ti1 47.867d00 Ti.UPF
O1 15.999d00 O.UPF
C1 12.011d00 C.UPF
H1 1.008d00 H.UPF
ATOMIC_POSITIONS {crystal}
Ti1      0.000123603383822d0     0.499897385958537d0     0.238512187198856d0
Ti1      0.500142521004230d0     0.250038178055688d0     0.238522014307695d0
O1       0.000095322930372d0     0.000084774873452d0     0.317452257936818d0
O1       0.500112315057126d0     0.000084209992886d0     0.290342007718641d0
O1       0.698270105622955d0     0.250236102495782d0     0.369213011426276d0
O1       0.301995368073695d0     0.249987007385122d0     0.369214717028816d0
Ti1      0.493006948083471d0     0.506351792337639d0     0.364502086232474d0
Ti1      0.991692788181304d0     0.256056706848127d0     0.369137160181329d0
O1       0.505159325972066d0     0.001298168891060d0     0.450784642634311d0
O1       0.001263025508369d0     0.000119824388860d0     0.420429745437233d0
O1       0.198768078375233d0     0.254179520802286d0     0.500389355611278d0
O1       0.810459376426209d0     0.247445014451453d0     0.502318464258764d0
Ti1      0.012565331963848d0     0.495151337857636d0     0.501276656815746d0
Ti1      0.511490437985966d0     0.270339681092808d0     0.501001585418050d0
O1       0.024668834464302d0     0.000052027789079d0     0.580922836907011d0
O1       0.487618987770069d0     0.000273998295463d0     0.553466550243842d0
O1       0.705642610800087d0     0.228716744446726d0     0.630833379643695d0
O1       0.314754841762503d0     0.267288067007558d0     0.641269798890489d0
Ti1      0.517640110279971d0     0.496242000355379d0     0.632930488199195d0
Ti1      0.008068802480068d0     0.224761274547992d0     0.632421064101410d0
O1       0.500093721748991d0     0.000084921243389d0     0.186906639369252d0
O1       0.017489746805464d0     0.997377768133658d0     0.681437151961219d0
O1       0.198268504441574d0     0.250236248865719d0     0.238667392858710d0
O1       0.801993766892314d0     0.249987153755059d0     0.238669098461250d0
Ti1      0.000123603383822d0     0.999897385958537d0     0.238512187198856d0
Ti1      0.500142521004230d0     0.750038178055688d0     0.238522014307695d0
O1       0.000095322930372d0     0.500084774873452d0     0.317452257936818d0
O1       0.500112315057126d0     0.500084209992886d0     0.290342007718641d0
O1       0.698270105622955d0     0.750236102495782d0     0.369213011426276d0
O1       0.301995368073695d0     0.749987007385122d0     0.369214717028816d0
Ti1      0.494238620935753d0     0.006970658557353d0     0.364938559367145d0
Ti1      0.991372359101175d0     0.749786897272431d0     0.368535904824783d0
O1       0.505388175335075d0     0.503322010842444d0     0.450895609693934d0
O1       0.999007101865086d0     0.499928581578089d0     0.421014282655814d0
O1       0.198408045798870d0     0.747966382072189d0     0.500385566539895d0
O1       0.809362940992866d0     0.756164166928260d0     0.502450511057092d0
Ti1      0.004767890489929d0     0.995514077562891d0     0.494921692162646d0
Ti1      0.509516869498798d0     0.761672964250177d0     0.495936303456216d0
O1       0.011326084029696d0     0.499127225507454d0     0.585019855867367d0
O1       0.512291995473876d0     0.494417765018800d0     0.553722894917541d0
O1       0.705422575202836d0     0.767960229801595d0     0.628944143497957d0
O1       0.315345601130850d0     0.733194048046430d0     0.639841980995940d0
Ti1      0.505784463204458d0     0.995093248885213d0     0.625392554457357d0
Ti1      0.009254133505631d0     0.760466940266300d0     0.627843437938371d0
O1       0.500093721748991d0     0.500084921243389d0     0.186906639369252d0
O1       0.198268504441574d0     0.750236248865719d0     0.238667392858710d0
O1       0.801993766892315d0     0.749987153755059d0     0.238669098461250d0
C1       0.697929390164656d0     0.507052322319873d0     0.711682195470069d0
O1       0.921463170544961d0     0.503331405065449d0     0.693919893819879d0
H1       0.007720568716256d0     0.521257385254487d0     0.724572656698452d0
H1       0.688002834179218d0     0.364101717842230d0     0.738898251683470d0
H1       0.680678597318506d0     0.663397506847864d0     0.733629388918359d0
O1       0.435687257303059d0     0.988442214863915d0     0.723611246616372d0
H1       0.463993826959273d0     0.137078015816663d0     0.737188221153938d0
H1       0.288273300423756d0     0.985943464247760d0     0.717607695219140d0
K_POINTS automatic
4 4 1  0 0 0 
