&CONTROL
  calculation='relax',
  prefix='calc',
  pseudo_dir='/storage/coda1/p-amedford6/0/shared/rich_project_chbe-medford/medford-share/data/pseudos_module/espresso/nninc/pbe/van',
  outdir='.',
  tefield=.true.,
  dipfield=.true.,
  tprnfor=.true.,
  disk_io='none',
/
&SYSTEM
  ibrav=0,
  celldm(1)=1.8897261245650618d0,
  nat=54,
  ntyp=5,
  ecutwfc=29.39945797996531d00,
  ecutrho=293.9945797996531d00,
  nbnd=210,
  occupations='smearing',
  smearing='fd',
  degauss=0.007349864494991328d00,
  input_dft='BEEF-vdW',
  edir=3,
  emaxpos=0.9785185468498098d00,
  eopreg=0.025d00,
  eamp=0.0d00,
  nosym=.false.,
  noinv=.false.,
  nosym_evc=.false.,
  no_t_rev=.false.,
/
&ELECTRONS
  diagonalization='david',
  conv_thr=7.349864494991327e-08,
  mixing_beta=0.05d00,
  electron_maxstep=1000,
  startingwfc='atomic',
/
&IONS
  ion_dynamics='ipi',
/
&CELL
  cell_dynamics='ipi',
/
CELL_PARAMETERS alat
    6.579727202290808d0     0.000000000000000d0     0.000000000000000d0
   -0.000775132442404d0     5.961596420607155d0     0.000000000000000d0
    0.000000000000000d0    -0.000000000000000d0    25.155947251439940d0
ATOMIC_SPECIES
O1 15.999d00 O.UPF
Ti1 47.867d00 Ti.UPF
N1 14.007d00 N.UPF
H1 1.008d00 H.UPF
C1 12.011d00 C.UPF
ATOMIC_POSITIONS {crystal}
O1       0.500093721748991d0     0.000084921243389d0     0.186906639369252d0
O1       0.500093721748991d0     0.500084921243389d0     0.186906639369252d0
Ti1      0.000123603383822d0     0.499897385958536d0     0.238512187198856d0
Ti1      0.000123603383822d0     0.999897385958536d0     0.238512187198856d0
Ti1      0.500142521004230d0     0.250038178055688d0     0.238522014307695d0
Ti1      0.500142521004230d0     0.750038178055688d0     0.238522014307695d0
O1       0.198268504441574d0     0.250236248865719d0     0.238667392858710d0
O1       0.198268504441574d0     0.750236248865719d0     0.238667392858710d0
O1       0.801993766892314d0     0.249987153755059d0     0.238669098461250d0
O1       0.801993766892315d0     0.749987153755059d0     0.238669098461250d0
O1       0.500112315057126d0     0.000084209992886d0     0.290342007718641d0
O1       0.500112315057126d0     0.500084209992886d0     0.290342007718641d0
O1       0.000095322930372d0     0.000084774873452d0     0.317452257936818d0
O1       0.000095322930372d0     0.500084774873452d0     0.317452257936818d0
Ti1      0.500198167309398d0     0.485761668506182d0     0.364758343030283d0
Ti1      0.500001644927041d0     0.985370751416071d0     0.364779031055315d0
Ti1      0.000261424674789d0     0.248709163236136d0     0.368424970923767d0
Ti1      0.000183276761494d0     0.748948988039575d0     0.368476322807288d0
O1       0.698270105622955d0     0.250236102495782d0     0.369213011426276d0
O1       0.698270105622955d0     0.750236102495782d0     0.369213011426276d0
O1       0.301995368073695d0     0.249987007385122d0     0.369214717028816d0
O1       0.301995368073695d0     0.749987007385122d0     0.369214717028816d0
O1       0.001882992193933d0     0.999479849154423d0     0.422099495650131d0
O1       0.001460782485842d0     0.499964783615161d0     0.422656139091726d0
O1       0.501448541782849d0     0.997692544539129d0     0.449881504070487d0
O1       0.501197097345452d0     0.498670235138742d0     0.449896710127431d0
Ti1      0.482827577156525d0     0.246548752374527d0     0.495286527875142d0
Ti1      0.482782493532175d0     0.746797508430524d0     0.495639916191824d0
Ti1      0.988142133869333d0     0.994310895383456d0     0.505349152000028d0
O1       0.806057981399087d0     0.746698293824018d0     0.502176320660441d0
O1       0.805865828982146d0     0.246865209839068d0     0.501915593354165d0
O1       0.201322866770676d0     0.748443942632606d0     0.501497478139424d0
O1       0.201682242706734d0     0.247221987258944d0     0.501153324318365d0
Ti1      0.987934946284259d0     0.494497495273075d0     0.503919606883189d0
O1       0.501519061228423d0     0.500461024396717d0     0.552293952576508d0
O1       0.502269153024495d0     0.000508018846618d0     0.552263451209409d0
O1       0.001520978436684d0     0.995355638727175d0     0.581206811847775d0
O1       0.004070574810295d0     0.491895385745561d0     0.580747580436008d0
Ti1      0.501269430870024d0     0.504608929220520d0     0.623549655078866d0
Ti1      0.504398470046855d0     0.004081953158745d0     0.623577219185925d0
Ti1      0.001691498543728d0     0.273882253597647d0     0.637304543049952d0
O1       0.316263179295061d0     0.254954926313444d0     0.638646082385096d0
O1       0.690146283464458d0     0.755297326190556d0     0.638352644921660d0
O1       0.315630887756369d0     0.755387427773085d0     0.638506696511075d0
O1       0.690683704775514d0     0.254842701503170d0     0.637871943294533d0
Ti1      0.002940510249289d0     0.775096477027401d0     0.640468855260797d0
O1       0.005814491690046d0     0.010463171472961d0     0.683988779949693d0
N1       0.440064467621500d0     0.408545179896348d0     0.759677002029604d0
H1       0.754404961016644d0     0.435598784514230d0     0.747204969909564d0
N1       0.254013837936553d0     0.324497887231349d0     0.770130454330367d0
H1       0.148398616048264d0     0.429079418203666d0     0.753814261756354d0
C1       0.617683138281593d0     0.365078318242186d0     0.764720196283692d0
H1       0.235999554768811d0     0.169736289478452d0     0.753252313476482d0
O1       0.999675324817549d0     0.507179302364680d0     0.684059428969542d0
K_POINTS automatic
4 4 1  0 0 0 
