&CONTROL
  calculation='relax',
  prefix='calc',
  pseudo_dir='/storage/coda1/p-amedford6/0/shared/rich_project_chbe-medford/medford-share/data/pseudos_module/espresso/nninc/pbe/van',
  outdir='.',
  tefield=.true.,
  dipfield=.true.,
  tprnfor=.true.,
  disk_io='none',
/
&SYSTEM
  ibrav=0,
  celldm(1)=1.8897261245650618d0,
  nat=59,
  ntyp=5,
  ecutwfc=29.39945797996531d00,
  ecutrho=293.9945797996531d00,
  nbnd=213,
  occupations='smearing',
  smearing='fd',
  degauss=0.007349864494991328d00,
  input_dft='BEEF-vdW',
  edir=3,
  emaxpos=0.05684830075374414d00,
  eopreg=0.025d00,
  eamp=0.0d00,
  nosym=.false.,
  noinv=.false.,
  nosym_evc=.false.,
  no_t_rev=.false.,
/
&ELECTRONS
  diagonalization='david',
  conv_thr=7.349864494991327e-08,
  mixing_beta=0.05d00,
  electron_maxstep=1000,
  startingpot='file',
  startingwfc='atomic',
/
&IONS
  ion_dynamics='ipi',
/
&CELL
  cell_dynamics='ipi',
/
CELL_PARAMETERS alat
    6.579727202290808d0     0.000000000000000d0     0.000000000000000d0
   -0.000775132442404d0     5.961596420607155d0     0.000000000000000d0
    0.000000000000000d0    -0.000000000000000d0    25.155947251439940d0
ATOMIC_SPECIES
Ti1 47.867d00 Ti.UPF
O1 15.999d00 O.UPF
N1 14.007d00 N.UPF
C1 12.011d00 C.UPF
H1 1.008d00 H.UPF
ATOMIC_POSITIONS {crystal}
Ti1      0.000123603383822d0     0.499897385958536d0     0.238512187198856d0
Ti1      0.500142521004230d0     0.250038178055688d0     0.238522014307695d0
O1       0.000095322930372d0     0.000084774873452d0     0.317452257936818d0
O1       0.500112315057126d0     0.000084209992886d0     0.290342007718641d0
O1       0.698270105622955d0     0.250236102495782d0     0.369213011426276d0
O1       0.301995368073695d0     0.249987007385122d0     0.369214717028816d0
Ti1      0.500198167309398d0     0.485761668506182d0     0.364758343030283d0
Ti1      0.000261424674789d0     0.248709163236136d0     0.368424970923767d0
O1       0.500849196009170d0     0.002681630958864d0     0.448888533056781d0
O1       0.001882992193933d0     0.999479849154423d0     0.422099495650131d0
O1       0.201295398040458d0     0.252453624459920d0     0.501447084535558d0
O1       0.806652914035045d0     0.253348056884475d0     0.501939225628915d0
Ti1      0.985380953471593d0     0.503407180682298d0     0.506300201527332d0
Ti1      0.482597292628033d0     0.251197011720190d0     0.495902472722628d0
O1       0.003352860233333d0     0.999860214715087d0     0.580328582950297d0
O1       0.502423828906953d0     0.004004005569670d0     0.552196357706310d0
O1       0.692147934879981d0     0.261251327881835d0     0.635875767604949d0
O1       0.315116965849724d0     0.261636747683752d0     0.635589045401179d0
Ti1      0.504280671176046d0     0.508074112271222d0     0.622212327128666d0
Ti1      0.003053331607572d0     0.272207105093408d0     0.638443821256300d0
O1       0.500093721748991d0     0.000084921243389d0     0.186906639369252d0
O1       0.004409353024160d0     0.008947996925558d0     0.684250539982003d0
O1       0.198268504441574d0     0.250236248865719d0     0.238667392858710d0
O1       0.801993766892314d0     0.249987153755059d0     0.238669098461250d0
Ti1      0.000123603383822d0     0.999897385958536d0     0.238512187198856d0
Ti1      0.500142521004230d0     0.750038178055688d0     0.238522014307695d0
O1       0.000095322930372d0     0.500084774873452d0     0.317452257936818d0
O1       0.500112315057126d0     0.500084209992886d0     0.290342007718641d0
O1       0.698270105622955d0     0.750236102495782d0     0.369213011426276d0
O1       0.301995368073695d0     0.749987007385122d0     0.369214717028816d0
Ti1      0.500001644927041d0     0.985370751416071d0     0.364779031055315d0
Ti1      0.000183276761494d0     0.748948988039575d0     0.368476322807288d0
O1       0.500358257511577d0     0.502193729922202d0     0.448860128125268d0
O1       0.001460782485842d0     0.499964783615161d0     0.422656139091726d0
O1       0.201104089452246d0     0.751218954629341d0     0.501314298769636d0
O1       0.806779712581396d0     0.750980979814922d0     0.501872666930647d0
Ti1      0.990026733340852d0     0.003200960535513d0     0.507318384652672d0
Ti1      0.482212199354649d0     0.753812961847527d0     0.495759026211035d0
O1       0.000597149341269d0     0.500708854273308d0     0.582316837146398d0
O1       0.503398465196226d0     0.505053741166934d0     0.550641305006631d0
O1       0.691954658267461d0     0.755823710770154d0     0.637062795953879d0
O1       0.315879223030728d0     0.755648647838475d0     0.636769734895419d0
Ti1      0.503311841687816d0     0.010000053401433d0     0.625911397659821d0
Ti1      0.002875738520410d0     0.771052114296369d0     0.640245723418217d0
O1       0.500093721748991d0     0.500084921243389d0     0.186906639369252d0
O1       0.198268504441574d0     0.750236248865719d0     0.238667392858710d0
O1       0.801993766892315d0     0.749987153755059d0     0.238669098461250d0
N1       0.009189597375838d0     0.507670250163981d0     0.688458537787166d0
N1       0.954895634464695d0     0.424305251600428d0     0.899288297147871d0
C1       0.043517261827468d0     0.505736334292369d0     0.744950537977898d0
H1       0.021526163287708d0     0.671975474616929d0     0.762820202823432d0
H1       0.941014994153829d0     0.387574841936315d0     0.764916122538694d0
H1       0.199531673551148d0     0.450700082505059d0     0.754060743569881d0
H1       0.927155647193643d0     0.545015186171928d0     0.926789962138236d0
H1       0.022167650749734d0     0.294999329959920d0     0.918743117685118d0
H1       0.060459073406473d0     0.487259799944579d0     0.873976112411840d0
O1       0.500150975499883d0     0.019200897935028d0     0.722017069044089d0
H1       0.618363802056463d0     0.934128911059727d0     0.733369330134006d0
H1       0.380991632845554d0     0.934507171693664d0     0.733137920783859d0
K_POINTS automatic
4 4 1  0 0 0 
