&CONTROL
  calculation='relax',
  prefix='calc',
  pseudo_dir='/storage/coda1/p-amedford6/0/shared/rich_project_chbe-medford/medford-share/data/pseudos_module/espresso/nninc/pbe/van',
  outdir='.',
  tefield=.true.,
  dipfield=.true.,
  tprnfor=.true.,
  disk_io='none',
/
&SYSTEM
  ibrav=0,
  celldm(1)=1.8897261245650618d0,
  nat=56,
  ntyp=5,
  ecutwfc=29.39945797996531d00,
  ecutrho=293.9945797996531d00,
  nbnd=211,
  occupations='smearing',
  smearing='fd',
  degauss=0.007349864494991328d00,
  input_dft='BEEF-vdW',
  edir=3,
  emaxpos=0.003429443449455283d00,
  eopreg=0.025d00,
  eamp=0.0d00,
  nosym=.false.,
  noinv=.false.,
  nosym_evc=.false.,
  no_t_rev=.false.,
/
&ELECTRONS
  diagonalization='david',
  conv_thr=7.349864494991327e-08,
  mixing_beta=0.05d00,
  electron_maxstep=1000,
  startingpot='file',
  startingwfc='atomic',
/
&IONS
  ion_dynamics='ipi',
/
&CELL
  cell_dynamics='ipi',
/
CELL_PARAMETERS alat
    6.579727202290808d0     0.000000000000000d0     0.000000000000000d0
   -0.000775132442404d0     5.961596420607155d0     0.000000000000000d0
    0.000000000000000d0    -0.000000000000000d0    25.155947251439940d0
ATOMIC_SPECIES
Ti1 47.867d00 Ti.UPF
O1 15.999d00 O.UPF
N1 14.007d00 N.UPF
C1 12.011d00 C.UPF
H1 1.008d00 H.UPF
ATOMIC_POSITIONS {crystal}
Ti1      0.000123603383822d0     0.499897385958536d0     0.238512187198856d0
Ti1      0.500142521004230d0     0.250038178055688d0     0.238522014307695d0
O1       0.000095322930372d0     0.000084774873452d0     0.317452257936818d0
O1       0.500112315057126d0     0.000084209992886d0     0.290342007718641d0
O1       0.698270105622955d0     0.250236102495782d0     0.369213011426276d0
O1       0.301995368073695d0     0.249987007385122d0     0.369214717028816d0
Ti1      0.500198167309398d0     0.485761668506182d0     0.364758343030283d0
Ti1      0.000261424674789d0     0.248709163236136d0     0.368424970923767d0
O1       0.499040300173093d0     0.998775527830329d0     0.449689317009098d0
O1       0.001882992193933d0     0.999479849154423d0     0.422099495650131d0
O1       0.194426463280422d0     0.249129985143103d0     0.502718486715747d0
O1       0.804681469954073d0     0.249964508141225d0     0.502278071925808d0
Ti1      0.995651768625153d0     0.522140779434118d0     0.501936451520485d0
Ti1      0.499639050924908d0     0.220075888096636d0     0.504309856129284d0
O1       0.997863750950449d0     0.002890603798049d0     0.583779844546776d0
O1       0.499146569780462d0     0.008647170533159d0     0.553523271657449d0
O1       0.690600288673347d0     0.267824251328197d0     0.638738204578771d0
O1       0.308615610573474d0     0.267648086973786d0     0.639138725218476d0
Ti1      0.501010695632038d0     0.513197897890594d0     0.622905479641043d0
Ti1      0.992753755261960d0     0.262188247039550d0     0.627208371582823d0
O1       0.500093721748991d0     0.000084921243389d0     0.186906639369252d0
O1       0.998924262146666d0     0.013769221982529d0     0.685924926301792d0
O1       0.198268504441574d0     0.250236248865719d0     0.238667392858710d0
O1       0.801993766892314d0     0.249987153755059d0     0.238669098461250d0
Ti1      0.000123603383822d0     0.999897385958536d0     0.238512187198856d0
Ti1      0.500142521004230d0     0.750038178055688d0     0.238522014307695d0
O1       0.000095322930372d0     0.500084774873452d0     0.317452257936818d0
O1       0.500112315057126d0     0.500084209992886d0     0.290342007718641d0
O1       0.698270105622955d0     0.750236102495782d0     0.369213011426276d0
O1       0.301995368073695d0     0.749987007385122d0     0.369214717028816d0
Ti1      0.500001644927041d0     0.985370751416071d0     0.364779031055315d0
Ti1      0.000183276761494d0     0.748948988039575d0     0.368476322807288d0
O1       0.498672527214287d0     0.506602291897037d0     0.448353329735473d0
O1       0.001460782485842d0     0.499964783615161d0     0.422656139091726d0
O1       0.193883409710483d0     0.750543417168709d0     0.502295510543699d0
O1       0.803196143616755d0     0.750370322409241d0     0.501872152262495d0
Ti1      0.001438952642336d0     0.020540677769067d0     0.499713370581883d0
Ti1      0.496622807666596d0     0.738640271800100d0     0.493572865349741d0
O1       0.997398235226846d0     0.505010345984666d0     0.583453309438962d0
O1       0.499952379846381d0     0.505154050431145d0     0.552193704120812d0
O1       0.688901046036748d0     0.753620668466677d0     0.642304545309007d0
O1       0.307858706437508d0     0.753480807423580d0     0.641219654049905d0
Ti1      0.490158429691980d0     0.014319388225499d0     0.649198565997479d0
Ti1      0.996061916894116d0     0.789271324677437d0     0.641330847765755d0
O1       0.500093721748991d0     0.500084921243389d0     0.186906639369252d0
O1       0.198268504441574d0     0.750236248865719d0     0.238667392858710d0
O1       0.801993766892315d0     0.749987153755059d0     0.238669098461250d0
N1       0.009936502052700d0     0.434978984859970d0     0.739406134333526d0
N1       0.000836171796916d0     0.495305529384259d0     0.691668152783818d0
C1       0.020750397410496d0     0.589702194026014d0     0.784446571452973d0
H1       0.928432422351049d0     0.737001911542848d0     0.776014335672152d0
H1       0.965576399248459d0     0.503702354982741d0     0.819952247529658d0
H1       0.177885041575011d0     0.644216299538029d0     0.790516126671926d0
H1       0.016144979817792d0     0.264626697199996d0     0.746498244587425d0
O1       0.492364436902528d0     0.024319831633558d0     0.723506369714496d0
H1       0.518540283585720d0     0.883229279608798d0     0.741243801432323d0
K_POINTS automatic
4 4 1  0 0 0 
