&CONTROL
  calculation='relax',
  prefix='calc',
  pseudo_dir='/storage/coda1/p-amedford6/0/shared/rich_project_chbe-medford/medford-share/data/pseudos_module/espresso/nninc/pbe/van',
  outdir='.',
  tefield=.true.,
  dipfield=.true.,
  tprnfor=.true.,
  disk_io='none',
/
&SYSTEM
  ibrav=0,
  celldm(1)=1.8897261245650618d0,
  nat=55,
  ntyp=5,
  ecutwfc=29.39945797996531d00,
  ecutrho=293.9945797996531d00,
  nbnd=211,
  occupations='smearing',
  smearing='fd',
  degauss=0.007349864494991328d00,
  input_dft='BEEF-vdW',
  edir=3,
  emaxpos=0.9877383358351589d00,
  eopreg=0.025d00,
  eamp=0.0d00,
  nosym=.false.,
  noinv=.false.,
  nosym_evc=.false.,
  no_t_rev=.false.,
/
&ELECTRONS
  diagonalization='david',
  conv_thr=7.349864494991327e-08,
  mixing_beta=0.05d00,
  electron_maxstep=1000,
  startingwfc='atomic',
/
&IONS
  ion_dynamics='ipi',
/
&CELL
  cell_dynamics='ipi',
/
CELL_PARAMETERS alat
    6.579727202290808d0     0.000000000000000d0     0.000000000000000d0
   -0.000775132442404d0     5.961596420607155d0     0.000000000000000d0
    0.000000000000000d0    -0.000000000000000d0    25.155947251439940d0
ATOMIC_SPECIES
Ti1 47.867d00 Ti.UPF
O1 15.999d00 O.UPF
C1 12.011d00 C.UPF
H1 1.008d00 H.UPF
N1 14.007d00 N.UPF
ATOMIC_POSITIONS {crystal}
Ti1      0.000123603383822d0     0.499897385958537d0     0.238512187198856d0
Ti1      0.500142521004230d0     0.250038178055688d0     0.238522014307695d0
O1       0.000095322930372d0     0.000084774873452d0     0.317452257936818d0
O1       0.500112315057126d0     0.000084209992886d0     0.290342007718641d0
O1       0.698270105622955d0     0.250236102495782d0     0.369213011426276d0
O1       0.301995368073695d0     0.249987007385122d0     0.369214717028816d0
Ti1      0.503702793413772d0     0.502960350487672d0     0.363955454895561d0
Ti1      0.005351308140369d0     0.252059475547639d0     0.368579550773688d0
O1       0.498656902267243d0     0.001382291844334d0     0.451901364132977d0
O1       0.999930064188628d0     0.000233138942947d0     0.421822373062119d0
O1       0.194581964383088d0     0.251636691908979d0     0.503023239557461d0
O1       0.802473584308072d0     0.251105940902356d0     0.503044562964233d0
Ti1      0.001464427302873d0     0.503072904382500d0     0.498693110967260d0
Ti1      0.501836288989780d0     0.253328377366823d0     0.497024595845123d0
O1       0.997685930151059d0     0.998885817821361d0     0.584164471510022d0
O1       0.496567656102124d0     0.000078107471394d0     0.556468695738374d0
O1       0.689132351304945d0     0.252890506922744d0     0.642994952247957d0
O1       0.306676794124915d0     0.252961836948233d0     0.643321216263317d0
Ti1      0.497322532847687d0     0.498383107336945d0     0.625328475824550d0
Ti1      0.994554016814639d0     0.222907275775350d0     0.636090757443223d0
O1       0.500093721748991d0     0.000084921243389d0     0.186906639369252d0
O1       0.997127922998120d0     0.000425188548808d0     0.684888389389375d0
O1       0.198268504441574d0     0.250236248865719d0     0.238667392858710d0
O1       0.801993766892314d0     0.249987153755059d0     0.238669098461250d0
Ti1      0.000123603383822d0     0.999897385958537d0     0.238512187198856d0
Ti1      0.500142521004230d0     0.750038178055688d0     0.238522014307695d0
O1       0.000095322930372d0     0.500084774873452d0     0.317452257936818d0
O1       0.500112315057126d0     0.500084209992886d0     0.290342007718641d0
O1       0.698270105622955d0     0.750236102495782d0     0.369213011426276d0
O1       0.301995368073695d0     0.749987007385122d0     0.369214717028816d0
Ti1      0.504001289310242d0     0.002716895152253d0     0.363872362791137d0
Ti1      0.005392014127278d0     0.750183288640230d0     0.368410063465939d0
O1       0.499764455874916d0     0.501984491745993d0     0.451615868613707d0
O1       0.000120580864336d0     0.500813831254919d0     0.422617346235022d0
O1       0.194506744845670d0     0.751094950865028d0     0.503211368000016d0
O1       0.802281795747633d0     0.751336825345763d0     0.503394369626951d0
Ti1      0.001107460385605d0     0.003431626752784d0     0.496408423834938d0
Ti1      0.502568568001712d0     0.752729601592964d0     0.497437212675370d0
O1       0.000114638690923d0     0.501702200053674d0     0.590998034433151d0
O1       0.497718737054915d0     0.500439042100381d0     0.554394496900565d0
O1       0.690153208588332d0     0.745828605791885d0     0.642746498747294d0
O1       0.307273140301803d0     0.744296055747468d0     0.644494442365331d0
Ti1      0.494786968523309d0     0.998946214373649d0     0.627640523545921d0
Ti1      0.991975573776750d0     0.760967057136293d0     0.631904885453527d0
O1       0.500093721748991d0     0.500084921243389d0     0.186906639369252d0
O1       0.198268504441574d0     0.750236248865719d0     0.238667392858710d0
O1       0.801993766892315d0     0.749987153755059d0     0.238669098461250d0
C1       0.891905019032734d0     0.520486583817890d0     0.751724808889643d0
O1       0.014597251848425d0     0.505937322597265d0     0.703930823523125d0
H1       0.735314474624640d0     0.500196185507590d0     0.739317218159650d0
H1       0.157753928318610d0     0.523043069902509d0     0.712778619350764d0
H1       0.934308691843248d0     0.385311224234605d0     0.778664347020905d0
H1       0.913191393186312d0     0.684678235364703d0     0.769850598363564d0
N1       0.375269519923377d0     0.013103315919391d0     0.788570032301065d0
N1       0.384909149930602d0     0.189305673628269d0     0.775162797913108d0
K_POINTS automatic
4 4 1  0 0 0 
