&CONTROL
  calculation='relax',
  prefix='calc',
  pseudo_dir='/storage/coda1/p-amedford6/0/shared/rich_project_chbe-medford/medford-share/data/pseudos_module/espresso/nninc/pbe/van',
  outdir='.',
  tefield=.true.,
  dipfield=.true.,
  tprnfor=.true.,
  disk_io='none',
/
&SYSTEM
  ibrav=0,
  celldm(1)=1.8897261245650618d0,
  nat=53,
  ntyp=4,
  ecutwfc=29.39945797996531d00,
  ecutrho=293.9945797996531d00,
  nbnd=206,
  occupations='smearing',
  smearing='fd',
  degauss=0.007349864494991328d00,
  input_dft='BEEF-vdW',
  edir=3,
  emaxpos=0.9817276057847937d00,
  eopreg=0.025d00,
  eamp=0.0d00,
  nosym=.false.,
  noinv=.false.,
  nosym_evc=.false.,
  no_t_rev=.false.,
/
&ELECTRONS
  diagonalization='david',
  conv_thr=7.349864494991327e-08,
  mixing_beta=0.05d00,
  electron_maxstep=1000,
  startingwfc='atomic',
/
&IONS
  ion_dynamics='ipi',
/
&CELL
  cell_dynamics='ipi',
/
CELL_PARAMETERS alat
    6.579727202290808d0     0.000000000000000d0     0.000000000000000d0
   -0.000775132442404d0     5.961596420607155d0     0.000000000000000d0
    0.000000000000000d0    -0.000000000000000d0    25.155947251439940d0
ATOMIC_SPECIES
Ti1 47.867d00 Ti.UPF
O1 15.999d00 O.UPF
C1 12.011d00 C.UPF
H1 1.008d00 H.UPF
ATOMIC_POSITIONS {crystal}
Ti1      0.000123603383822d0     0.499897385958537d0     0.238512187198856d0
Ti1      0.500142521004230d0     0.250038178055688d0     0.238522014307695d0
O1       0.000095322930372d0     0.000084774873452d0     0.317452257936818d0
O1       0.500112315057126d0     0.000084209992886d0     0.290342007718641d0
O1       0.698270105622955d0     0.250236102495782d0     0.369213011426276d0
O1       0.301995368073695d0     0.249987007385122d0     0.369214717028816d0
Ti1      0.505828481613930d0     0.497500221491797d0     0.364042976356470d0
Ti1      0.007483928945472d0     0.250178433119549d0     0.368385488123027d0
O1       0.499492418334364d0     0.009289606375413d0     0.451764099396500d0
O1       0.999957827024288d0     0.003838649172098d0     0.421316159589371d0
O1       0.196018867595424d0     0.259000873799017d0     0.503540448693584d0
O1       0.804902111228614d0     0.258288365620374d0     0.503407883592144d0
Ti1      0.995188892412234d0     0.508663296766903d0     0.497157229812594d0
Ti1      0.492363866180396d0     0.258347248552466d0     0.497578211724014d0
O1       0.004070902371351d0     0.008061525313071d0     0.581834627075535d0
O1       0.501562150205934d0     0.007481407083913d0     0.555524008511227d0
O1       0.696834806477648d0     0.264828234761328d0     0.640788672704536d0
O1       0.312166428139564d0     0.266757863836780d0     0.640693153047771d0
Ti1      0.506314270583181d0     0.513262895533753d0     0.625473476939273d0
Ti1      0.007629892928001d0     0.243338712582748d0     0.629288882634694d0
O1       0.500093721748991d0     0.000084921243389d0     0.186906639369252d0
O1       0.003963795908212d0     0.024584007246126d0     0.682424774005382d0
O1       0.198268504441574d0     0.250236248865719d0     0.238667392858710d0
O1       0.801993766892314d0     0.249987153755059d0     0.238669098461250d0
Ti1      0.000123603383822d0     0.999897385958537d0     0.238512187198856d0
Ti1      0.500142521004230d0     0.750038178055688d0     0.238522014307695d0
O1       0.000095322930372d0     0.500084774873452d0     0.317452257936818d0
O1       0.500112315057126d0     0.500084209992886d0     0.290342007718641d0
O1       0.698270105622955d0     0.750236102495782d0     0.369213011426276d0
O1       0.301995368073695d0     0.749987007385122d0     0.369214717028816d0
Ti1      0.505732660954494d0     0.997714083399891d0     0.364011725031018d0
Ti1      0.007537862916328d0     0.749471128553716d0     0.368225310760949d0
O1       0.499435192473850d0     0.506078865285273d0     0.451168304938512d0
O1       0.000062032987762d0     0.502400637723507d0     0.422152253434919d0
O1       0.195994875842299d0     0.758225799340228d0     0.502512247466027d0
O1       0.804817081643444d0     0.758552478914765d0     0.502549709996894d0
Ti1      0.994379009819663d0     0.007335648219153d0     0.495553994593752d0
Ti1      0.492302023272778d0     0.758599828414969d0     0.496810713531340d0
O1       0.001778119379842d0     0.518743684113368d0     0.593739625989155d0
O1       0.501747733820564d0     0.511109349114791d0     0.554136313649646d0
O1       0.697438743137348d0     0.762449472416932d0     0.641916702711792d0
O1       0.311525521473296d0     0.760552382219926d0     0.642220443808163d0
Ti1      0.505373120640877d0     0.010799806281753d0     0.626792069314922d0
Ti1      0.005067576332815d0     0.790407647170410d0     0.634292494393876d0
O1       0.500093721748991d0     0.500084921243389d0     0.186906639369252d0
O1       0.198268504441574d0     0.750236248865719d0     0.238667392858710d0
O1       0.801993766892315d0     0.749987153755059d0     0.238669098461250d0
C1       0.984016449470398d0     0.528715928606519d0     0.755312997790324d0
O1       0.775167495268187d0     0.483956436056090d0     0.763869514369870d0
H1       0.012468199623869d0     0.701060920940882d0     0.767757044886640d0
H1       0.745370381506040d0     0.333284357823723d0     0.752040989475371d0
H1       0.083173099929046d0     0.412471812287508d0     0.776548572200335d0
H1       0.026306071747590d0     0.514238267259256d0     0.712846023442755d0
K_POINTS automatic
4 4 1  0 0 0 
