&CONTROL
  calculation='relax',
  prefix='calc',
  pseudo_dir='/storage/coda1/p-amedford6/0/shared/rich_project_chbe-medford/medford-share/data/pseudos_module/espresso/nninc/pbe/van',
  outdir='.',
  tefield=.true.,
  dipfield=.true.,
  tprnfor=.true.,
  disk_io='none',
/
&SYSTEM
  ibrav=0,
  celldm(1)=1.8897261245650618d0,
  nat=57,
  ntyp=5,
  ecutwfc=29.39945797996531d00,
  ecutrho=293.9945797996531d00,
  nbnd=214,
  occupations='smearing',
  smearing='fd',
  degauss=0.007349864494991328d00,
  input_dft='BEEF-vdW',
  edir=3,
  emaxpos=0.04870423777751198d00,
  eopreg=0.025d00,
  eamp=0.0d00,
  nosym=.false.,
  noinv=.false.,
  nosym_evc=.false.,
  no_t_rev=.false.,
/
&ELECTRONS
  diagonalization='david',
  conv_thr=7.349864494991327e-08,
  mixing_beta=0.05d00,
  electron_maxstep=1000,
  startingpot='file',
  startingwfc='atomic',
/
&IONS
  ion_dynamics='ipi',
/
&CELL
  cell_dynamics='ipi',
/
CELL_PARAMETERS alat
    6.579727202290808d0     0.000000000000000d0     0.000000000000000d0
   -0.000775132442404d0     5.961596420607155d0     0.000000000000000d0
    0.000000000000000d0    -0.000000000000000d0    25.155947251439940d0
ATOMIC_SPECIES
Ti1 47.867d00 Ti.UPF
O1 15.999d00 O.UPF
C1 12.011d00 C.UPF
H1 1.008d00 H.UPF
N1 14.007d00 N.UPF
ATOMIC_POSITIONS {crystal}
Ti1      0.000123603383822d0     0.499897385958537d0     0.238512187198856d0
Ti1      0.500142521004230d0     0.250038178055688d0     0.238522014307695d0
O1       0.000095322930372d0     0.000084774873452d0     0.317452257936818d0
O1       0.500112315057126d0     0.000084209992886d0     0.290342007718641d0
O1       0.698270105622955d0     0.250236102495782d0     0.369213011426276d0
O1       0.301995368073695d0     0.249987007385122d0     0.369214717028816d0
Ti1      0.507239380706266d0     0.507729304694439d0     0.365271792797925d0
Ti1      0.009317179664212d0     0.255949849493322d0     0.368936704721646d0
O1       0.503727280384325d0     0.003169385405145d0     0.451510424280667d0
O1       0.002494857351324d0     0.000526699437454d0     0.420957567256553d0
O1       0.198958258460684d0     0.251520552855568d0     0.502257375233847d0
O1       0.810819476719615d0     0.250707270259044d0     0.502256405028190d0
Ti1      0.003137162705677d0     0.508132374165507d0     0.499765714656414d0
Ti1      0.504437763602988d0     0.265888827529048d0     0.493962091049147d0
O1       0.006887268987633d0     0.997229746784313d0     0.582409021705857d0
O1       0.504803857309983d0     0.987137284266626d0     0.556943353193988d0
O1       0.702945980557469d0     0.253568249202031d0     0.641255698846398d0
O1       0.313706657929453d0     0.258988891665763d0     0.638739388062376d0
Ti1      0.507072252367319d0     0.494066545175902d0     0.623166775961095d0
Ti1      0.010466251685455d0     0.223343936480898d0     0.633387157369144d0
O1       0.500093721748991d0     0.000084921243389d0     0.186906639369252d0
O1       0.014888371932079d0     0.000667229959897d0     0.682374770396440d0
O1       0.198268504441574d0     0.250236248865719d0     0.238667392858710d0
O1       0.801993766892314d0     0.249987153755059d0     0.238669098461250d0
Ti1      0.000123603383822d0     0.999897385958537d0     0.238512187198856d0
Ti1      0.500142521004230d0     0.750038178055688d0     0.238522014307695d0
O1       0.000095322930372d0     0.500084774873452d0     0.317452257936818d0
O1       0.500112315057126d0     0.500084209992886d0     0.290342007718641d0
O1       0.698270105622955d0     0.750236102495782d0     0.369213011426276d0
O1       0.301995368073695d0     0.749987007385122d0     0.369214717028816d0
Ti1      0.507142567546025d0     0.006777380096898d0     0.364384264823147d0
Ti1      0.009278478840879d0     0.751464210772922d0     0.368486413610505d0
O1       0.503690609375142d0     0.497558462355892d0     0.449532163774881d0
O1       0.002097607538829d0     0.500718838409920d0     0.421555001880853d0
O1       0.198496690052704d0     0.750134401337943d0     0.502405227161791d0
O1       0.811097496790285d0     0.751160891966829d0     0.502428053000724d0
Ti1      0.005551958003755d0     0.008171288438991d0     0.495719295435805d0
Ti1      0.504381803803131d0     0.782559130363927d0     0.505197703884203d0
O1       0.003525910827986d0     0.501854593748747d0     0.587383532378299d0
O1       0.508157604190771d0     0.498193224202633d0     0.552714049433893d0
O1       0.703246709719906d0     0.740613715382978d0     0.642172338549795d0
O1       0.312731893679304d0     0.731216678836656d0     0.640588227564027d0
Ti1      0.514554756902369d0     0.994610072932985d0     0.646765570196186d0
Ti1      0.007947059323204d0     0.759330119879424d0     0.629936790443823d0
O1       0.500093721748991d0     0.500084921243389d0     0.186906639369252d0
O1       0.198268504441574d0     0.750236248865719d0     0.238667392858710d0
O1       0.801993766892315d0     0.749987153755059d0     0.238669098461250d0
C1       0.903608197683865d0     0.511896710858124d0     0.749323838112280d0
O1       0.027450998939489d0     0.504631569233898d0     0.701561763509541d0
H1       0.754276574149589d0     0.450095229745514d0     0.738949140999306d0
H1       0.169723379351656d0     0.527416346815759d0     0.710599586647290d0
H1       0.971203658008627d0     0.401134418736962d0     0.779245000724756d0
H1       0.894443632896940d0     0.684303032247058d0     0.763840345170816d0
N1       0.875459575404799d0     0.525423198836513d0     0.910501836185771d0
N1       0.757631950280141d0     0.534257297059089d0     0.879330192080198d0
O1       0.478244810320991d0     0.001992666536059d0     0.720172450442584d0
H1       0.336862251495348d0     0.014514324273246d0     0.730914286755160d0
K_POINTS automatic
4 4 1  0 0 0 
