&CONTROL
  calculation='relax',
  prefix='calc',
  pseudo_dir='/storage/coda1/p-amedford6/0/shared/rich_project_chbe-medford/medford-share/data/pseudos_module/espresso/nninc/pbe/van',
  outdir='.',
  tefield=.true.,
  dipfield=.true.,
  tprnfor=.true.,
  disk_io='none',
/
&SYSTEM
  ibrav=0,
  celldm(1)=1.8897261245650618d0,
  nat=53,
  ntyp=5,
  ecutwfc=29.39945797996531d00,
  ecutrho=293.9945797996531d00,
  nbnd=210,
  occupations='smearing',
  smearing='fd',
  degauss=0.007349864494991328d00,
  input_dft='BEEF-vdW',
  edir=3,
  emaxpos=0.9872988394785192d00,
  eopreg=0.025d00,
  eamp=0.0d00,
  nosym=.false.,
  noinv=.false.,
  nosym_evc=.false.,
  no_t_rev=.false.,
/
&ELECTRONS
  diagonalization='david',
  conv_thr=7.349864494991327e-08,
  mixing_beta=0.05d00,
  electron_maxstep=1000,
  startingwfc='atomic',
/
&IONS
  ion_dynamics='ipi',
/
&CELL
  cell_dynamics='ipi',
/
CELL_PARAMETERS alat
    6.579727202290808d0     0.000000000000000d0     0.000000000000000d0
   -0.000775132442404d0     5.961596420607155d0     0.000000000000000d0
    0.000000000000000d0    -0.000000000000000d0    25.155947251439940d0
ATOMIC_SPECIES
Ti1 47.867d00 Ti.UPF
O1 15.999d00 O.UPF
N1 14.007d00 N.UPF
C1 12.011d00 C.UPF
H1 1.008d00 H.UPF
ATOMIC_POSITIONS {crystal}
Ti1      0.000123603383822d0     0.499897385958536d0     0.238512187198856d0
Ti1      0.500142521004230d0     0.250038178055688d0     0.238522014307695d0
O1       0.000095322930372d0     0.000084774873452d0     0.317452257936818d0
O1       0.500112315057126d0     0.000084209992886d0     0.290342007718641d0
O1       0.698270105622955d0     0.250236102495782d0     0.369213011426276d0
O1       0.301995368073695d0     0.249987007385122d0     0.369214717028816d0
Ti1      0.497557350632339d0     0.481022194381635d0     0.364484849705176d0
Ti1      0.997111197194943d0     0.233068423591215d0     0.372792667416479d0
O1       0.492834020871206d0     0.997174729370406d0     0.451948965186674d0
O1       0.997194508816078d0     0.995763077056629d0     0.420125050763252d0
O1       0.184884559123502d0     0.245705961823297d0     0.502876951258927d0
O1       0.792792818298947d0     0.247366679776546d0     0.503157032156969d0
Ti1      0.002974583998211d0     0.493938070824989d0     0.509772780582068d0
Ti1      0.504205932801330d0     0.244285924378805d0     0.497263054871038d0
O1       0.996011233158543d0     0.997628372252363d0     0.583108859877879d0
O1       0.486097889550145d0     0.997052084171408d0     0.554504438199158d0
O1       0.682942965437883d0     0.244860725413150d0     0.638207999253144d0
O1       0.303955784613316d0     0.245034014314930d0     0.638964439324742d0
Ti1      0.500197011562674d0     0.494513785605711d0     0.628375306023965d0
Ti1      0.005642998857274d0     0.235355771149477d0     0.642566711046343d0
O1       0.500093721748991d0     0.000084921243389d0     0.186906639369252d0
O1       0.986135205173788d0     0.989749512594276d0     0.685050622437212d0
O1       0.198268504441574d0     0.250236248865719d0     0.238667392858710d0
O1       0.801993766892314d0     0.249987153755059d0     0.238669098461250d0
Ti1      0.000123603383822d0     0.999897385958536d0     0.238512187198856d0
Ti1      0.500142521004230d0     0.750038178055688d0     0.238522014307695d0
O1       0.000095322930372d0     0.500084774873452d0     0.317452257936818d0
O1       0.500112315057126d0     0.500084209992886d0     0.290342007718641d0
O1       0.698270105622955d0     0.750236102495782d0     0.369213011426276d0
O1       0.301995368073695d0     0.749987007385122d0     0.369214717028816d0
Ti1      0.498374970072790d0     0.982036677951571d0     0.364689198252587d0
Ti1      0.997299448532349d0     0.733718861340178d0     0.373202586567083d0
O1       0.492736078390582d0     0.496685604908162d0     0.451619096470953d0
O1       0.997837494844667d0     0.496094246533835d0     0.420178623299371d0
O1       0.183616640753927d0     0.746888595451021d0     0.502612673951801d0
O1       0.793065533135251d0     0.747234797191182d0     0.502950136732352d0
Ti1      0.999946042463352d0     0.994609407631607d0     0.509697896687813d0
Ti1      0.505883974535341d0     0.742210199287497d0     0.498362358066080d0
O1       0.996694698279882d0     0.495123708327698d0     0.582999450500838d0
O1       0.484853904240300d0     0.502088529071457d0     0.554590379790503d0
O1       0.683254123940532d0     0.747170265847203d0     0.630993897425249d0
O1       0.290558789299729d0     0.736862558755199d0     0.640235865966475d0
Ti1      0.503269780713920d0     0.013357714364541d0     0.626618445775309d0
Ti1      0.970591510222252d0     0.735385338580228d0     0.641863948142814d0
O1       0.500093721748991d0     0.500084921243389d0     0.186906639369252d0
O1       0.974545994384856d0     0.488368411864863d0     0.684724400514610d0
O1       0.198268504441574d0     0.750236248865719d0     0.238667392858710d0
O1       0.801993766892315d0     0.749987153755059d0     0.238669098461250d0
N1       0.462909283963068d0     0.872015286217926d0     0.709298396979965d0
N1       0.372191966392098d0     0.675950865416781d0     0.694930456609457d0
C1       0.527666756764690d0     0.904369068242140d0     0.756702209233809d0
H1       0.510649970276298d0     0.779766801973156d0     0.787691039587786d0
H1       0.602141367480648d0     0.061630289337443d0     0.765184344768484d0
K_POINTS automatic
4 4 1  0 0 0 
