&CONTROL
  calculation='relax',
  prefix='calc',
  pseudo_dir='/storage/coda1/p-amedford6/0/shared/rich_project_chbe-medford/medford-share/data/pseudos_module/espresso/nninc/pbe/van',
  outdir='.',
  tefield=.true.,
  dipfield=.true.,
  tprnfor=.true.,
  disk_io='none',
/
&SYSTEM
  ibrav=0,
  celldm(1)=1.8897261245650618d0,
  nat=52,
  ntyp=5,
  ecutwfc=29.39945797996531d00,
  ecutrho=293.9945797996531d00,
  nbnd=205,
  occupations='smearing',
  smearing='fd',
  degauss=0.007349864494991328d00,
  nspin=2,
  starting_magnetization(1)=0.0d00,
  starting_magnetization(2)=0.0d00,
  starting_magnetization(3)=0.0d00,
  starting_magnetization(4)=0.025d00,
  starting_magnetization(5)=0.0d00,
  input_dft='BEEF-vdW',
  edir=3,
  emaxpos=0.975557465985405d00,
  eopreg=0.025d00,
  eamp=0.0d00,
  nosym=.false.,
  noinv=.false.,
  nosym_evc=.false.,
  no_t_rev=.false.,
/
&ELECTRONS
  diagonalization='david',
  conv_thr=7.349864494991327e-08,
  mixing_beta=0.05d00,
  electron_maxstep=1000,
  startingpot='file',
  startingwfc='atomic',
/
&IONS
  ion_dynamics='ipi',
/
&CELL
  cell_dynamics='ipi',
/
CELL_PARAMETERS alat
    6.579727202290808d0     0.000000000000000d0     0.000000000000000d0
   -0.000775132442404d0     5.961596420607155d0     0.000000000000000d0
    0.000000000000000d0    -0.000000000000000d0    25.155947251439940d0
ATOMIC_SPECIES
Ti1 47.867d00 Ti.UPF
O1 15.999d00 O.UPF
N1 14.007d00 N.UPF
C1 12.011d00 C.UPF
H1 1.008d00 H.UPF
ATOMIC_POSITIONS {crystal}
Ti1      0.000123603383822d0     0.499897385958536d0     0.238512187198856d0
Ti1      0.500142521004230d0     0.250038178055688d0     0.238522014307695d0
O1       0.000095322930372d0     0.000084774873452d0     0.317452257936818d0
O1       0.500112315057126d0     0.000084209992886d0     0.290342007718641d0
O1       0.698270105622955d0     0.250236102495782d0     0.369213011426276d0
O1       0.301995368073695d0     0.249987007385122d0     0.369214717028816d0
Ti1      0.500198167309398d0     0.485761668506182d0     0.364758343030283d0
Ti1      0.000261424674789d0     0.248709163236136d0     0.368424970923767d0
O1       0.499243252373392d0     0.003094964807596d0     0.449070892039711d0
O1       0.001882992193933d0     0.999479849154423d0     0.422099495650131d0
O1       0.200103798370477d0     0.255002201055482d0     0.501480034956572d0
O1       0.804600457474930d0     0.255779381585992d0     0.502320651894613d0
Ti1      0.983282607510282d0     0.505828522831480d0     0.507252190580555d0
Ti1      0.480614329926250d0     0.254378623033561d0     0.495545418517490d0
O1       0.003800878204433d0     0.007160530140962d0     0.580083650575123d0
O1       0.499971471864138d0     0.002872657777602d0     0.551756689831299d0
O1       0.689496385177210d0     0.251503666888857d0     0.637775496888802d0
O1       0.316373591769429d0     0.251866973768625d0     0.638382266187940d0
Ti1      0.502859743386434d0     0.502498314416119d0     0.623527967339810d0
Ti1      0.000522568899629d0     0.242886100854989d0     0.640999931472927d0
O1       0.500093721748991d0     0.000084921243389d0     0.186906639369252d0
O1       0.002457544646488d0     0.000073510941662d0     0.683616043845377d0
O1       0.198268504441574d0     0.250236248865719d0     0.238667392858710d0
O1       0.801993766892314d0     0.249987153755059d0     0.238669098461250d0
Ti1      0.000123603383822d0     0.999897385958536d0     0.238512187198856d0
Ti1      0.500142521004230d0     0.750038178055688d0     0.238522014307695d0
O1       0.000095322930372d0     0.500084774873452d0     0.317452257936818d0
O1       0.500112315057126d0     0.500084209992886d0     0.290342007718641d0
O1       0.698270105622955d0     0.750236102495782d0     0.369213011426276d0
O1       0.301995368073695d0     0.749987007385122d0     0.369214717028816d0
Ti1      0.500001644927041d0     0.985370751416071d0     0.364779031055315d0
Ti1      0.000183276761494d0     0.748948988039575d0     0.368476322807288d0
O1       0.499397706337529d0     0.503128570719444d0     0.449037960083293d0
O1       0.001460782485842d0     0.499964783615161d0     0.422656139091726d0
O1       0.200396015666026d0     0.752485382473014d0     0.501492195644823d0
O1       0.804389386621706d0     0.753185256049258d0     0.502134573860069d0
Ti1      0.988658611633945d0     0.005956977383879d0     0.507665137843031d0
Ti1      0.480272238339016d0     0.754225328141137d0     0.495597978777298d0
O1       0.998984540680849d0     0.507044827279296d0     0.582697299191502d0
O1       0.500571194018805d0     0.502882679267504d0     0.551729147664347d0
O1       0.688906070920624d0     0.752144091910213d0     0.637697354248597d0
O1       0.316219967622317d0     0.751468502168490d0     0.638233747766471d0
Ti1      0.500178471224817d0     0.002140485177846d0     0.623686371400254d0
Ti1      0.000839209659679d0     0.742585044821277d0     0.639783049143998d0
O1       0.500093721748991d0     0.500084921243389d0     0.186906639369252d0
O1       0.198268504441574d0     0.750236248865719d0     0.238667392858710d0
O1       0.801993766892315d0     0.749987153755059d0     0.238669098461250d0
N1       0.009127418856391d0     0.502264151474756d0     0.688569072581862d0
C1       0.059618378133870d0     0.499444965031447d0     0.744420486212044d0
H1       0.000343788106592d0     0.648352623863938d0     0.764208292601558d0
H1       0.000709316005674d0     0.349153083618828d0     0.764037257715693d0
H1       0.225657193635017d0     0.499679192393141d0     0.749648809389581d0
K_POINTS automatic
4 4 1  0 0 0 
