&CONTROL
  calculation='relax',
  prefix='calc',
  pseudo_dir='/storage/coda1/p-amedford6/0/shared/rich_project_chbe-medford/medford-share/data/pseudos_module/espresso/nninc/pbe/van',
  outdir='.',
  tefield=.true.,
  dipfield=.true.,
  tprnfor=.true.,
  disk_io='none',
/
&SYSTEM
  ibrav=0,
  celldm(1)=1.8897261245650618d0,
  nat=53,
  ntyp=4,
  ecutwfc=29.39945797996531d00,
  ecutrho=293.9945797996531d00,
  nbnd=206,
  occupations='smearing',
  smearing='fd',
  degauss=0.007349864494991328d00,
  input_dft='BEEF-vdW',
  edir=3,
  emaxpos=0.9650437873287205d00,
  eopreg=0.025d00,
  eamp=0.0d00,
  nosym=.false.,
  noinv=.false.,
  nosym_evc=.false.,
  no_t_rev=.false.,
/
&ELECTRONS
  diagonalization='david',
  conv_thr=7.349864494991327e-08,
  mixing_beta=0.05d00,
  electron_maxstep=1000,
  startingpot='file',
  startingwfc='atomic',
/
&IONS
  ion_dynamics='ipi',
/
&CELL
  cell_dynamics='ipi',
/
CELL_PARAMETERS alat
    6.579727202290808d0     0.000000000000000d0     0.000000000000000d0
   -0.000775132442404d0     5.961596420607155d0     0.000000000000000d0
    0.000000000000000d0    -0.000000000000000d0    25.155947251439940d0
ATOMIC_SPECIES
Ti1 47.867d00 Ti.UPF
O1 15.999d00 O.UPF
C1 12.011d00 C.UPF
H1 1.008d00 H.UPF
ATOMIC_POSITIONS {crystal}
Ti1      0.000123603383822d0     0.499897385958537d0     0.238512187198856d0
Ti1      0.500142521004230d0     0.250038178055688d0     0.238522014307695d0
O1       0.000095322930372d0     0.000084774873452d0     0.317452257936818d0
O1       0.500112315057126d0     0.000084209992886d0     0.290342007718641d0
O1       0.698270105622955d0     0.250236102495782d0     0.369213011426276d0
O1       0.301995368073695d0     0.249987007385122d0     0.369214717028816d0
Ti1      0.498198540690768d0     0.479788066246904d0     0.366474437191376d0
Ti1      0.997006978395923d0     0.239947882554147d0     0.372000279515182d0
O1       0.499974699246692d0     0.998212449954175d0     0.450061261039756d0
O1       0.999612174493510d0     0.997981739596243d0     0.420881427318828d0
O1       0.194752857834922d0     0.250664989192913d0     0.502634770563674d0
O1       0.806535829342120d0     0.250786867924426d0     0.502508768163977d0
Ti1      0.003113701976680d0     0.480611507245187d0     0.509505480447349d0
Ti1      0.500916534241462d0     0.219849614531453d0     0.504410689895534d0
O1       0.996340830454119d0     0.997108715636023d0     0.581841993040978d0
O1       0.499684834172451d0     0.007006894422164d0     0.553419476331242d0
O1       0.692040471877759d0     0.264386485644907d0     0.639148499143435d0
O1       0.309565007045362d0     0.261703354616787d0     0.639062008816954d0
Ti1      0.496714674793174d0     0.508216977359979d0     0.622949146218020d0
Ti1      0.982278709115006d0     0.254778007240883d0     0.641639800398335d0
O1       0.500093721748991d0     0.000084921243389d0     0.186906639369252d0
O1       0.997450358217783d0     0.003889806039863d0     0.682223317204139d0
O1       0.198268504441574d0     0.250236248865719d0     0.238667392858710d0
O1       0.801993766892314d0     0.249987153755059d0     0.238669098461250d0
Ti1      0.000123603383822d0     0.999897385958537d0     0.238512187198856d0
Ti1      0.500142521004230d0     0.750038178055688d0     0.238522014307695d0
O1       0.000095322930372d0     0.500084774873452d0     0.317452257936818d0
O1       0.500112315057126d0     0.500084209992886d0     0.290342007718641d0
O1       0.698270105622955d0     0.750236102495782d0     0.369213011426276d0
O1       0.301995368073695d0     0.749987007385122d0     0.369214717028816d0
Ti1      0.497089418987202d0     0.980783449097808d0     0.364886246971848d0
Ti1      0.996785371444387d0     0.734110759242910d0     0.371584811709537d0
O1       0.499741126398336d0     0.505305877626496d0     0.448781695771096d0
O1       0.000147989407119d0     0.497226028602492d0     0.419401704899076d0
O1       0.193844255497933d0     0.748876868160435d0     0.501908079153426d0
O1       0.804901187464147d0     0.748792633299746d0     0.501770727807365d0
Ti1      0.996483158566947d0     0.980819715913026d0     0.500989568634044d0
Ti1      0.498707050872439d0     0.739139838021280d0     0.493791402199942d0
O1       0.999888033211555d0     0.500084855048433d0     0.584933751665780d0
O1       0.499613260545238d0     0.503098053571459d0     0.552240748173141d0
O1       0.690298014875517d0     0.747138569009536d0     0.639851660671570d0
O1       0.305645166510844d0     0.747722945691912d0     0.638847025606632d0
Ti1      0.481293360191427d0     0.007233928353111d0     0.648617411412486d0
Ti1      0.988093815178608d0     0.775678354818371d0     0.632113393747473d0
O1       0.500093721748991d0     0.500084921243389d0     0.186906639369252d0
O1       0.198268504441574d0     0.750236248865719d0     0.238667392858710d0
O1       0.801993766892315d0     0.749987153755059d0     0.238669098461250d0
C1       0.004430779457434d0     0.489120187928087d0     0.708816753718261d0
H1       0.003258383306898d0     0.665842354531406d0     0.719956123084221d0
H1       0.143821597851285d0     0.419408293890190d0     0.725684608602154d0
H1       0.874159477241343d0     0.413767116699503d0     0.729221621498644d0
O1       0.488609798112015d0     0.011461430073785d0     0.720948250682891d0
H1       0.529881318755439d0     0.886337360394364d0     0.743180935288189d0
K_POINTS automatic
4 4 1  0 0 0 
