&CONTROL
  calculation='relax',
  prefix='calc',
  pseudo_dir='/storage/coda1/p-amedford6/0/shared/rich_project_chbe-medford/medford-share/data/pseudos_module/espresso/nninc/pbe/van',
  outdir='.',
  tefield=.true.,
  dipfield=.true.,
  tprnfor=.true.,
  disk_io='none',
/
&SYSTEM
  ibrav=0,
  celldm(1)=1.8897261245650618d0,
  nat=56,
  ntyp=5,
  ecutwfc=29.39945797996531d00,
  ecutrho=293.9945797996531d00,
  nbnd=211,
  occupations='smearing',
  smearing='fd',
  degauss=0.007349864494991328d00,
  input_dft='BEEF-vdW',
  edir=3,
  emaxpos=0.9779268916704107d00,
  eopreg=0.025d00,
  eamp=0.0d00,
  nosym=.false.,
  noinv=.false.,
  nosym_evc=.false.,
  no_t_rev=.false.,
/
&ELECTRONS
  diagonalization='david',
  conv_thr=7.349864494991327e-08,
  mixing_beta=0.05d00,
  electron_maxstep=1000,
  startingpot='file',
  startingwfc='atomic',
/
&IONS
  ion_dynamics='ipi',
/
&CELL
  cell_dynamics='ipi',
/
CELL_PARAMETERS alat
    6.579727202290808d0     0.000000000000000d0     0.000000000000000d0
   -0.000775132442404d0     5.961596420607155d0     0.000000000000000d0
    0.000000000000000d0    -0.000000000000000d0    25.155947251439940d0
ATOMIC_SPECIES
Ti1 47.867d00 Ti.UPF
O1 15.999d00 O.UPF
N1 14.007d00 N.UPF
C1 12.011d00 C.UPF
H1 1.008d00 H.UPF
ATOMIC_POSITIONS {crystal}
Ti1      0.000123603383822d0     0.499897385958536d0     0.238512187198856d0
Ti1      0.500142521004230d0     0.250038178055688d0     0.238522014307695d0
O1       0.000095322930372d0     0.000084774873452d0     0.317452257936818d0
O1       0.500112315057126d0     0.000084209992886d0     0.290342007718641d0
O1       0.698270105622955d0     0.250236102495782d0     0.369213011426276d0
O1       0.301995368073695d0     0.249987007385122d0     0.369214717028816d0
Ti1      0.500198167309398d0     0.485761668506182d0     0.364758343030283d0
Ti1      0.000261424674789d0     0.248709163236136d0     0.368424970923767d0
O1       0.501282728665662d0     0.006796503676837d0     0.450887206629986d0
O1       0.001882992193933d0     0.999479849154423d0     0.422099495650131d0
O1       0.193863733618828d0     0.252825264290566d0     0.504917607445414d0
O1       0.808500822171146d0     0.254652291738410d0     0.504669032203374d0
Ti1      0.000356304895887d0     0.497983424088906d0     0.496882471034080d0
Ti1      0.502356436093644d0     0.263317435078436d0     0.495368866917396d0
O1       0.995205950704935d0     0.983194516028198d0     0.583855389863372d0
O1       0.502836528269226d0     0.993426005348243d0     0.554322252710325d0
O1       0.693761444381713d0     0.264159364648180d0     0.641081932466816d0
O1       0.309201392162761d0     0.258240497853261d0     0.639387405921421d0
Ti1      0.497834574701840d0     0.501526798788919d0     0.624881691923445d0
Ti1      0.992626045270682d0     0.223642557327247d0     0.627749055408204d0
O1       0.500093721748991d0     0.000084921243389d0     0.186906639369252d0
O1       0.002951097195895d0     0.033653266672265d0     0.684422332685431d0
O1       0.198268504441574d0     0.250236248865719d0     0.238667392858710d0
O1       0.801993766892314d0     0.249987153755059d0     0.238669098461250d0
Ti1      0.000123603383822d0     0.999897385958536d0     0.238512187198856d0
Ti1      0.500142521004230d0     0.750038178055688d0     0.238522014307695d0
O1       0.000095322930372d0     0.500084774873452d0     0.317452257936818d0
O1       0.500112315057126d0     0.500084209992886d0     0.290342007718641d0
O1       0.698270105622955d0     0.750236102495782d0     0.369213011426276d0
O1       0.301995368073695d0     0.749987007385122d0     0.369214717028816d0
Ti1      0.500001644927041d0     0.985370751416071d0     0.364779031055315d0
Ti1      0.000183276761494d0     0.748948988039575d0     0.368476322807288d0
O1       0.500676148305483d0     0.494059173738813d0     0.450061173967739d0
O1       0.001460782485842d0     0.499964783615161d0     0.422656139091726d0
O1       0.194343537115236d0     0.751860841259044d0     0.503107274904028d0
O1       0.808815988504985d0     0.750535471565460d0     0.502716329253705d0
Ti1      0.004710612189973d0     0.994964791732837d0     0.496994171577079d0
Ti1      0.503338329616264d0     0.783567707172678d0     0.505239375451294d0
O1       0.002979710538307d0     0.513696908748015d0     0.595076366992640d0
O1       0.501507219809167d0     0.505691844673233d0     0.554495473681998d0
O1       0.694931307458557d0     0.746275589860356d0     0.646798656378129d0
O1       0.307797065844578d0     0.745887451599519d0     0.646295852440824d0
Ti1      0.495654581366234d0     0.005134670271862d0     0.654783264329984d0
Ti1      0.995666851370490d0     0.763181251443485d0     0.638442074414492d0
O1       0.500093721748991d0     0.500084921243389d0     0.186906639369252d0
O1       0.198268504441574d0     0.750236248865719d0     0.238667392858710d0
O1       0.801993766892315d0     0.749987153755059d0     0.238669098461250d0
N1       0.151745645371178d0     0.414398073359473d0     0.744688190715211d0
N1       0.996040317598956d0     0.574215615540198d0     0.726334214266070d0
C1       0.329710841183237d0     0.456976801428101d0     0.762760317927818d0
H1       0.352863434028241d0     0.637584245006190d0     0.768947143971569d0
H1       0.109792250557531d0     0.255568323655505d0     0.732890277727665d0
H1       0.016602373699614d0     0.720458600169698d0     0.746731631899186d0
H1       0.856739577155975d0     0.510898957073038d0     0.736297305834747d0
O1       0.493541721789212d0     0.031303536162937d0     0.726220331372108d0
H1       0.464645270667841d0     0.175990389576596d0     0.745727682899669d0
K_POINTS automatic
4 4 1  0 0 0 
