&CONTROL
  calculation='relax',
  prefix='calc',
  pseudo_dir='/storage/coda1/p-amedford6/0/shared/rich_project_chbe-medford/medford-share/data/pseudos_module/espresso/nninc/pbe/van',
  outdir='.',
  tefield=.true.,
  dipfield=.true.,
  tprnfor=.true.,
  disk_io='none',
/
&SYSTEM
  ibrav=0,
  celldm(1)=1.8897261245650618d0,
  nat=54,
  ntyp=5,
  ecutwfc=29.39945797996531d00,
  ecutrho=293.9945797996531d00,
  nbnd=208,
  occupations='smearing',
  smearing='fd',
  degauss=0.007349864494991328d00,
  input_dft='BEEF-vdW',
  edir=3,
  emaxpos=0.9960805330433666d00,
  eopreg=0.025d00,
  eamp=0.0d00,
  nosym=.false.,
  noinv=.false.,
  nosym_evc=.false.,
  no_t_rev=.false.,
/
&ELECTRONS
  diagonalization='david',
  conv_thr=7.349864494991327e-08,
  mixing_beta=0.05d00,
  electron_maxstep=1000,
  startingwfc='atomic',
/
&IONS
  ion_dynamics='ipi',
/
&CELL
  cell_dynamics='ipi',
/
CELL_PARAMETERS alat
    6.579727202290808d0     0.000000000000000d0     0.000000000000000d0
   -0.000775132442404d0     5.961596420607155d0     0.000000000000000d0
    0.000000000000000d0    -0.000000000000000d0    25.155947251439940d0
ATOMIC_SPECIES
Ti1 47.867d00 Ti.UPF
O1 15.999d00 O.UPF
N1 14.007d00 N.UPF
C1 12.011d00 C.UPF
H1 1.008d00 H.UPF
ATOMIC_POSITIONS {crystal}
Ti1      0.000123603383822d0     0.499897385958536d0     0.238512187198856d0
Ti1      0.500142521004230d0     0.250038178055688d0     0.238522014307695d0
O1       0.000095322930372d0     0.000084774873452d0     0.317452257936818d0
O1       0.500112315057126d0     0.000084209992886d0     0.290342007718641d0
O1       0.698270105622955d0     0.250236102495782d0     0.369213011426276d0
O1       0.301995368073695d0     0.249987007385122d0     0.369214717028816d0
Ti1      0.500198167309398d0     0.485761668506182d0     0.364758343030283d0
Ti1      0.000261424674789d0     0.248709163236136d0     0.368424970923767d0
O1       0.503580913246113d0     0.995819638444888d0     0.451698332226975d0
O1       0.001882992193933d0     0.999479849154423d0     0.422099495650131d0
O1       0.200865618239603d0     0.247524043166167d0     0.503576838384017d0
O1       0.808921174104296d0     0.247008642451780d0     0.503377219987130d0
Ti1      0.004998501402532d0     0.496084531071325d0     0.497638583746310d0
Ti1      0.504788158761763d0     0.248132127043603d0     0.497172758582859d0
O1       0.005078629039511d0     0.998046513020263d0     0.584109049107551d0
O1       0.507111651767560d0     0.992929584172646d0     0.556035423453730d0
O1       0.700096265480464d0     0.241695836036783d0     0.643843114078907d0
O1       0.319690215441681d0     0.238756601643599d0     0.642389871728407d0
Ti1      0.508583731762540d0     0.489511921801868d0     0.625830623224781d0
Ti1      0.005761326783943d0     0.220420611526046d0     0.637275361361822d0
O1       0.500093721748991d0     0.000084921243389d0     0.186906639369252d0
O1       0.009388601282069d0     0.980635589483914d0     0.685253698197115d0
O1       0.198268504441574d0     0.250236248865719d0     0.238667392858710d0
O1       0.801993766892314d0     0.249987153755059d0     0.238669098461250d0
Ti1      0.000123603383822d0     0.999897385958536d0     0.238512187198856d0
Ti1      0.500142521004230d0     0.750038178055688d0     0.238522014307695d0
O1       0.000095322930372d0     0.500084774873452d0     0.317452257936818d0
O1       0.500112315057126d0     0.500084209992886d0     0.290342007718641d0
O1       0.698270105622955d0     0.750236102495782d0     0.369213011426276d0
O1       0.301995368073695d0     0.749987007385122d0     0.369214717028816d0
Ti1      0.500001644927041d0     0.985370751416071d0     0.364779031055315d0
Ti1      0.000183276761494d0     0.748948988039575d0     0.368476322807288d0
O1       0.503420056991165d0     0.496891215010940d0     0.451523887326755d0
O1       0.001460782485842d0     0.499964783615161d0     0.422656139091726d0
O1       0.200661203483983d0     0.745498833718055d0     0.503883667510053d0
O1       0.809441731585715d0     0.745731455246317d0     0.503952591358956d0
Ti1      0.004661274586767d0     0.998010083565641d0     0.496878711826795d0
Ti1      0.504583634239859d0     0.747477569925204d0     0.497679639096145d0
O1       0.006197383928612d0     0.488279236083186d0     0.595118172159513d0
O1       0.508300053081202d0     0.491411378694017d0     0.554380522558550d0
O1       0.700157951666310d0     0.735377240842084d0     0.644133189760284d0
O1       0.316587103878280d0     0.737677182438450d0     0.640489063333670d0
Ti1      0.505566262401239d0     0.988287919966664d0     0.627486911820893d0
Ti1      0.007532140658122d0     0.763071209584926d0     0.631616290550058d0
O1       0.500093721748991d0     0.500084921243389d0     0.186906639369252d0
O1       0.198268504441574d0     0.750236248865719d0     0.238667392858710d0
O1       0.801993766892315d0     0.749987153755059d0     0.238669098461250d0
N1       0.073051008086125d0     0.461988768137808d0     0.720247261997489d0
C1       0.198979085982299d0     0.494156790548074d0     0.751071047793420d0
H1       0.324572150605646d0     0.540464494760949d0     0.777088920628494d0
N1       0.655400643348239d0     0.609270314987429d0     0.777723862673350d0
H1       0.752499454501283d0     0.673072445718325d0     0.805254426717481d0
H1       0.695090756537510d0     0.688445686448736d0     0.742822652390412d0
H1       0.701329300823548d0     0.447902171864086d0     0.772481710380748d0
K_POINTS automatic
4 4 1  0 0 0 
