&CONTROL
  calculation='relax',
  prefix='calc',
  pseudo_dir='/storage/coda1/p-amedford6/0/shared/rich_project_chbe-medford/medford-share/data/pseudos_module/espresso/nninc/pbe/van',
  outdir='.',
  tefield=.true.,
  dipfield=.true.,
  tprnfor=.true.,
  disk_io='none',
/
&SYSTEM
  ibrav=0,
  celldm(1)=1.8897261245650618d0,
  nat=54,
  ntyp=5,
  ecutwfc=29.39945797996531d00,
  ecutrho=293.9945797996531d00,
  nbnd=208,
  occupations='smearing',
  smearing='fd',
  degauss=0.007349864494991328d00,
  input_dft='BEEF-vdW',
  edir=3,
  emaxpos=0.9652033074557407d00,
  eopreg=0.025d00,
  eamp=0.0d00,
  nosym=.false.,
  noinv=.false.,
  nosym_evc=.false.,
  no_t_rev=.false.,
/
&ELECTRONS
  diagonalization='david',
  conv_thr=7.349864494991327e-08,
  mixing_beta=0.05d00,
  electron_maxstep=1000,
  startingpot='file',
  startingwfc='atomic',
/
&IONS
  ion_dynamics='ipi',
/
&CELL
  cell_dynamics='ipi',
/
CELL_PARAMETERS alat
    6.579727202290808d0     0.000000000000000d0     0.000000000000000d0
   -0.000775132442404d0     5.961596420607155d0     0.000000000000000d0
    0.000000000000000d0    -0.000000000000000d0    25.155947251439940d0
ATOMIC_SPECIES
Ti1 47.867d00 Ti.UPF
O1 15.999d00 O.UPF
N1 14.007d00 N.UPF
C1 12.011d00 C.UPF
H1 1.008d00 H.UPF
ATOMIC_POSITIONS {crystal}
Ti1      0.000123603383822d0     0.499897385958536d0     0.238512187198856d0
Ti1      0.500142521004230d0     0.250038178055688d0     0.238522014307695d0
O1       0.000095322930372d0     0.000084774873452d0     0.317452257936818d0
O1       0.500112315057126d0     0.000084209992886d0     0.290342007718641d0
O1       0.698270105622955d0     0.250236102495782d0     0.369213011426276d0
O1       0.301995368073695d0     0.249987007385122d0     0.369214717028816d0
Ti1      0.500198167309398d0     0.485761668506182d0     0.364758343030283d0
Ti1      0.000261424674789d0     0.248709163236136d0     0.368424970923767d0
O1       0.500353639228900d0     0.997652159592067d0     0.451008144700565d0
O1       0.001882992193933d0     0.999479849154423d0     0.422099495650131d0
O1       0.198482313849184d0     0.248389601126802d0     0.502426227681880d0
O1       0.806069393146786d0     0.247410573644671d0     0.501780603646188d0
Ti1      0.992410440360694d0     0.492528769290486d0     0.501794195556848d0
Ti1      0.489039084622232d0     0.245164997627536d0     0.497179763124219d0
O1       0.996901082506986d0     0.997632106956939d0     0.581890831434868d0
O1       0.503570166903644d0     0.998577244196578d0     0.555318064037888d0
O1       0.689927241133332d0     0.251801501195860d0     0.640290567470366d0
O1       0.305422678851887d0     0.252363571612007d0     0.637253947459634d0
Ti1      0.497965875833106d0     0.495225788624038d0     0.623621092897544d0
Ti1      0.004250669270005d0     0.225642541579206d0     0.637831387819584d0
O1       0.500093721748991d0     0.000084921243389d0     0.186906639369252d0
O1       0.003140470896713d0     0.994094046562666d0     0.682151579079690d0
O1       0.198268504441574d0     0.250236248865719d0     0.238667392858710d0
O1       0.801993766892314d0     0.249987153755059d0     0.238669098461250d0
Ti1      0.000123603383822d0     0.999897385958536d0     0.238512187198856d0
Ti1      0.500142521004230d0     0.750038178055688d0     0.238522014307695d0
O1       0.000095322930372d0     0.500084774873452d0     0.317452257936818d0
O1       0.500112315057126d0     0.500084209992886d0     0.290342007718641d0
O1       0.698270105622955d0     0.750236102495782d0     0.369213011426276d0
O1       0.301995368073695d0     0.749987007385122d0     0.369214717028816d0
Ti1      0.500001644927041d0     0.985370751416071d0     0.364779031055315d0
Ti1      0.000183276761494d0     0.748948988039575d0     0.368476322807288d0
O1       0.499512551889741d0     0.497561627026518d0     0.451061235052341d0
O1       0.001460782485842d0     0.499964783615161d0     0.422656139091726d0
O1       0.199225912445019d0     0.750251064501614d0     0.502312927971572d0
O1       0.805819269436430d0     0.748874549069181d0     0.501597765207760d0
Ti1      0.992736908176806d0     0.993479709935319d0     0.497705500053196d0
Ti1      0.489338324603853d0     0.747339982708605d0     0.496969664161568d0
O1       0.997277879248032d0     0.501881619868310d0     0.583544244704387d0
O1       0.503819130772882d0     0.496564780586199d0     0.552526143280758d0
O1       0.691369946706044d0     0.740480043276949d0     0.638057905657456d0
O1       0.306272869355157d0     0.741647582458260d0     0.635903751294704d0
Ti1      0.506275147186872d0     0.994269700009548d0     0.628481607852067d0
Ti1      0.004243369568278d0     0.753808943683684d0     0.628657872103747d0
O1       0.500093721748991d0     0.500084921243389d0     0.186906639369252d0
O1       0.198268504441574d0     0.750236248865719d0     0.238667392858710d0
O1       0.801993766892315d0     0.749987153755059d0     0.238669098461250d0
N1       0.989992727343517d0     0.496735536904559d0     0.701463032562296d0
C1       0.120597811810948d0     0.507715743652061d0     0.740402581434137d0
H1       0.278295319631946d0     0.491669161492067d0     0.725057909792082d0
H1       0.843481168989705d0     0.514407455050435d0     0.714396184544445d0
O1       0.484258569472958d0     0.973871205528683d0     0.721946481420306d0
H1       0.584550784594427d0     0.050707832050463d0     0.743499975542229d0
H1       0.351391287212683d0     0.000905762015430d0     0.737930143363833d0
K_POINTS automatic
4 4 1  0 0 0 
