&CONTROL
  calculation='relax',
  prefix='calc',
  pseudo_dir='/storage/coda1/p-amedford6/0/shared/rich_project_chbe-medford/medford-share/data/pseudos_module/espresso/nninc/pbe/van',
  outdir='.',
  tefield=.true.,
  dipfield=.true.,
  tprnfor=.true.,
  disk_io='none',
/
&SYSTEM
  ibrav=0,
  celldm(1)=1.8897261245650618d0,
  nat=53,
  ntyp=4,
  ecutwfc=29.39945797996531d00,
  ecutrho=293.9945797996531d00,
  nbnd=206,
  occupations='smearing',
  smearing='fd',
  degauss=0.007349864494991328d00,
  input_dft='BEEF-vdW',
  edir=3,
  emaxpos=0.9891474371937587d00,
  eopreg=0.025d00,
  eamp=0.0d00,
  nosym=.false.,
  noinv=.false.,
  nosym_evc=.false.,
  no_t_rev=.false.,
/
&ELECTRONS
  diagonalization='david',
  conv_thr=7.349864494991327e-08,
  mixing_beta=0.05d00,
  electron_maxstep=1000,
  startingwfc='atomic',
/
&IONS
  ion_dynamics='ipi',
/
&CELL
  cell_dynamics='ipi',
/
CELL_PARAMETERS alat
    6.579727202290808d0     0.000000000000000d0     0.000000000000000d0
   -0.000775132442404d0     5.961596420607155d0     0.000000000000000d0
    0.000000000000000d0    -0.000000000000000d0    25.155947251439940d0
ATOMIC_SPECIES
Ti1 47.867d00 Ti.UPF
O1 15.999d00 O.UPF
C1 12.011d00 C.UPF
H1 1.008d00 H.UPF
ATOMIC_POSITIONS {crystal}
Ti1      0.000123603383822d0     0.499897385958537d0     0.238512187198856d0
Ti1      0.500142521004230d0     0.250038178055688d0     0.238522014307695d0
O1       0.000095322930372d0     0.000084774873452d0     0.317452257936818d0
O1       0.500112315057126d0     0.000084209992886d0     0.290342007718641d0
O1       0.698270105622955d0     0.250236102495782d0     0.369213011426276d0
O1       0.301995368073695d0     0.249987007385122d0     0.369214717028816d0
Ti1      0.504583295379985d0     0.496901530967305d0     0.363978762841115d0
Ti1      0.006063762034918d0     0.249349487649853d0     0.368079096289065d0
O1       0.499452262633425d0     0.006337992762906d0     0.451834423974039d0
O1       0.000359840261119d0     0.001978819521907d0     0.421822274513407d0
O1       0.193985505170091d0     0.253886845729832d0     0.504651073256885d0
O1       0.803974284968571d0     0.254139377046988d0     0.504430529536132d0
Ti1      0.999605631681081d0     0.503940007382187d0     0.496717130662570d0
Ti1      0.500306597659029d0     0.255408918594660d0     0.497716198685096d0
O1       0.996912428785841d0     0.984889104446031d0     0.583451883172996d0
O1       0.498853810134127d0     0.001736008802367d0     0.555564613692784d0
O1       0.688654887294708d0     0.259342484160942d0     0.639702542019785d0
O1       0.306156918961964d0     0.259200523147499d0     0.639433416910820d0
Ti1      0.497025026437019d0     0.508273297172295d0     0.625936482826596d0
Ti1      0.996291107622002d0     0.226893879973033d0     0.627091679302588d0
O1       0.500093721748991d0     0.000084921243389d0     0.186906639369252d0
O1       0.997853005252792d0     0.034947786062076d0     0.684260736096954d0
O1       0.198268504441574d0     0.250236248865719d0     0.238667392858710d0
O1       0.801993766892314d0     0.249987153755059d0     0.238669098461250d0
Ti1      0.000123603383822d0     0.999897385958537d0     0.238512187198856d0
Ti1      0.500142521004230d0     0.750038178055688d0     0.238522014307695d0
O1       0.000095322930372d0     0.500084774873452d0     0.317452257936818d0
O1       0.500112315057126d0     0.500084209992886d0     0.290342007718641d0
O1       0.698270105622955d0     0.750236102495782d0     0.369213011426276d0
O1       0.301995368073695d0     0.749987007385122d0     0.369214717028816d0
Ti1      0.504621251090845d0     0.997476286769218d0     0.363884152686171d0
Ti1      0.006094708961439d0     0.750084850031832d0     0.367890266886029d0
O1       0.499328136726734d0     0.502463242609619d0     0.451739727589342d0
O1       0.000417812446508d0     0.499955929035363d0     0.422372974911003d0
O1       0.194746441656389d0     0.752128068049367d0     0.502239115003170d0
O1       0.803312415746762d0     0.751910268727168d0     0.502017481593739d0
Ti1      0.000250641798842d0     0.001559381942350d0     0.496244878085629d0
Ti1      0.500382423830552d0     0.755099158944961d0     0.497175146014188d0
O1       0.997833246556168d0     0.515029447222488d0     0.594935245647764d0
O1       0.498805793222834d0     0.509880214210726d0     0.554842066177143d0
O1       0.688969515112911d0     0.756833183028568d0     0.644233109452607d0
O1       0.306408542834871d0     0.757294906117582d0     0.643939517134439d0
Ti1      0.496796567369136d0     0.007581633417397d0     0.627118078333146d0
Ti1      0.996553401086494d0     0.768427537944415d0     0.639332563036841d0
O1       0.500093721748991d0     0.500084921243389d0     0.186906639369252d0
O1       0.198268504441574d0     0.750236248865719d0     0.238667392858710d0
O1       0.801993766892315d0     0.749987153755059d0     0.238669098461250d0
C1       0.997340211854224d0     0.618555610665338d0     0.769728225338976d0
O1       0.000468212874068d0     0.526257335145715d0     0.716656294972747d0
H1       0.996171756329701d0     0.799746888676980d0     0.765282418662531d0
H1       0.002503364019365d0     0.362875919991309d0     0.719680301790675d0
H1       0.860542460754970d0     0.563411917228087d0     0.790603823907577d0
H1       0.133093037200842d0     0.565984309572597d0     0.791388235018265d0
K_POINTS automatic
4 4 1  0 0 0 
