&CONTROL
  calculation='relax',
  prefix='calc',
  pseudo_dir='/storage/coda1/p-amedford6/0/shared/rich_project_chbe-medford/medford-share/data/pseudos_module/espresso/nninc/pbe/van',
  outdir='.',
  tefield=.true.,
  dipfield=.true.,
  tprnfor=.true.,
  disk_io='none',
/
&SYSTEM
  ibrav=0,
  celldm(1)=1.8897261245650618d0,
  nat=56,
  ntyp=4,
  ecutwfc=29.39945797996531d00,
  ecutrho=293.9945797996531d00,
  nbnd=210,
  occupations='smearing',
  smearing='fd',
  degauss=0.007349864494991328d00,
  input_dft='BEEF-vdW',
  edir=3,
  emaxpos=0.9836309098303622d00,
  eopreg=0.025d00,
  eamp=0.0d00,
  nosym=.false.,
  noinv=.false.,
  nosym_evc=.false.,
  no_t_rev=.false.,
/
&ELECTRONS
  diagonalization='david',
  conv_thr=7.349864494991327e-08,
  mixing_beta=0.05d00,
  electron_maxstep=1000,
  startingpot='file',
  startingwfc='atomic',
/
&IONS
  ion_dynamics='ipi',
/
&CELL
  cell_dynamics='ipi',
/
CELL_PARAMETERS alat
    6.579727202290808d0     0.000000000000000d0     0.000000000000000d0
   -0.000775132442404d0     5.961596420607155d0     0.000000000000000d0
    0.000000000000000d0    -0.000000000000000d0    25.155947251439940d0
ATOMIC_SPECIES
Ti1 47.867d00 Ti.UPF
O1 15.999d00 O.UPF
C1 12.011d00 C.UPF
H1 1.008d00 H.UPF
ATOMIC_POSITIONS {crystal}
Ti1      0.000123603383822d0     0.499897385958537d0     0.238512187198856d0
Ti1      0.500142521004230d0     0.250038178055688d0     0.238522014307695d0
O1       0.000095322930372d0     0.000084774873452d0     0.317452257936818d0
O1       0.500112315057126d0     0.000084209992886d0     0.290342007718641d0
O1       0.698270105622955d0     0.250236102495782d0     0.369213011426276d0
O1       0.301995368073695d0     0.249987007385122d0     0.369214717028816d0
Ti1      0.504334661895477d0     0.497636614129876d0     0.364079157069271d0
Ti1      0.005629214859680d0     0.249738495853990d0     0.368287281335383d0
O1       0.501382801638708d0     0.996596307538152d0     0.452206596998244d0
O1       0.000453261973263d0     0.998896210980970d0     0.421643698366519d0
O1       0.196548069476232d0     0.246775177664902d0     0.502970004242659d0
O1       0.804978379331196d0     0.247347092442199d0     0.502866207168633d0
Ti1      0.003543792685972d0     0.496356290887299d0     0.498434619452725d0
Ti1      0.503970347073749d0     0.245640965547952d0     0.497672168315339d0
O1       0.998504951331540d0     0.997750193605892d0     0.583835227083799d0
O1       0.501122862876114d0     0.997316174724885d0     0.557630822823497d0
O1       0.694069225266318d0     0.252078078484544d0     0.644307892746980d0
O1       0.308295301229367d0     0.253154259024076d0     0.643086231105291d0
Ti1      0.501598059866336d0     0.494048969988617d0     0.624817598490244d0
Ti1      0.998915405809245d0     0.222009972445974d0     0.635623019749324d0
O1       0.500093721748991d0     0.000084921243389d0     0.186906639369252d0
O1       0.004468979905581d0     0.996799281856783d0     0.684944711907151d0
O1       0.198268504441574d0     0.250236248865719d0     0.238667392858710d0
O1       0.801993766892314d0     0.249987153755059d0     0.238669098461250d0
Ti1      0.000123603383822d0     0.999897385958537d0     0.238512187198856d0
Ti1      0.500142521004230d0     0.750038178055688d0     0.238522014307695d0
O1       0.000095322930372d0     0.500084774873452d0     0.317452257936818d0
O1       0.500112315057126d0     0.500084209992886d0     0.290342007718641d0
O1       0.698270105622955d0     0.750236102495782d0     0.369213011426276d0
O1       0.301995368073695d0     0.749987007385122d0     0.369214717028816d0
Ti1      0.504338450200678d0     0.997924170160740d0     0.363890498060811d0
Ti1      0.005666730001629d0     0.747452305509091d0     0.368534531177623d0
O1       0.500866587395670d0     0.497361121639156d0     0.451920049537809d0
O1       0.001276160111073d0     0.499262456595442d0     0.422483213715115d0
O1       0.196629828048443d0     0.747458408575070d0     0.503229982277135d0
O1       0.804784933596131d0     0.746847269628428d0     0.503180541117354d0
Ti1      0.002534349333791d0     0.996602863981527d0     0.496232129798124d0
Ti1      0.503938225985000d0     0.746451590139179d0     0.497712448245683d0
O1       0.000582834318542d0     0.496872398443753d0     0.590703105245518d0
O1       0.501445306502924d0     0.495437488259262d0     0.554048033613742d0
O1       0.695014652953393d0     0.739979523343996d0     0.641777827283315d0
O1       0.307929394724249d0     0.736094897258949d0     0.642333285532449d0
Ti1      0.498941433191577d0     0.991592664799055d0     0.629803211296287d0
Ti1      0.994277406792089d0     0.758904887665748d0     0.631023403617196d0
O1       0.500093721748991d0     0.500084921243389d0     0.186906639369252d0
O1       0.198268504441574d0     0.750236248865719d0     0.238667392858710d0
O1       0.801993766892315d0     0.749987153755059d0     0.238669098461250d0
C1       0.908226831187648d0     0.532561447867430d0     0.752418785766102d0
O1       0.023372142495187d0     0.507754875455018d0     0.704059513562664d0
H1       0.749227510388368d0     0.515077790607254d0     0.741710400259348d0
H1       0.165879132779113d0     0.544601109079725d0     0.709574860871775d0
H1       0.952833847633375d0     0.401530622251574d0     0.780355180291472d0
H1       0.933737295655222d0     0.699386946271031d0     0.768723088985708d0
O1       0.482251636105389d0     0.996857010491696d0     0.730202929668321d0
H1       0.590503194802731d0     0.106577359286305d0     0.733752373264616d0
H1       0.355752773076604d0     0.081051143422262d0     0.728264251380444d0
K_POINTS automatic
4 4 1  0 0 0 
