&CONTROL
  calculation='relax',
  prefix='calc',
  pseudo_dir='/storage/coda1/p-amedford6/0/shared/rich_project_chbe-medford/medford-share/data/pseudos_module/espresso/nninc/pbe/van',
  outdir='.',
  tefield=.true.,
  dipfield=.true.,
  tprnfor=.true.,
  disk_io='none',
/
&SYSTEM
  ibrav=0,
  celldm(1)=1.8897261245650618d0,
  nat=53,
  ntyp=5,
  ecutwfc=29.39945797996531d00,
  ecutrho=293.9945797996531d00,
  nbnd=210,
  occupations='smearing',
  smearing='fd',
  degauss=0.007349864494991328d00,
  input_dft='BEEF-vdW',
  edir=3,
  emaxpos=0.01933868704222652d00,
  eopreg=0.025d00,
  eamp=0.0d00,
  nosym=.false.,
  noinv=.false.,
  nosym_evc=.false.,
  no_t_rev=.false.,
/
&ELECTRONS
  diagonalization='david',
  conv_thr=7.349864494991327e-08,
  mixing_beta=0.05d00,
  electron_maxstep=1000,
  startingpot='file',
  startingwfc='atomic',
/
&IONS
  ion_dynamics='ipi',
/
&CELL
  cell_dynamics='ipi',
/
CELL_PARAMETERS alat
    6.579727202290808d0     0.000000000000000d0     0.000000000000000d0
   -0.000775132442404d0     5.961596420607155d0     0.000000000000000d0
    0.000000000000000d0    -0.000000000000000d0    25.155947251439940d0
ATOMIC_SPECIES
Ti1 47.867d00 Ti.UPF
O1 15.999d00 O.UPF
N1 14.007d00 N.UPF
C1 12.011d00 C.UPF
H1 1.008d00 H.UPF
ATOMIC_POSITIONS {crystal}
Ti1      0.000123603383822d0     0.499897385958536d0     0.238512187198856d0
Ti1      0.500142521004230d0     0.250038178055688d0     0.238522014307695d0
O1       0.000095322930372d0     0.000084774873452d0     0.317452257936818d0
O1       0.500112315057126d0     0.000084209992886d0     0.290342007718641d0
O1       0.698270105622955d0     0.250236102495782d0     0.369213011426276d0
O1       0.301995368073695d0     0.249987007385122d0     0.369214717028816d0
Ti1      0.501015697538265d0     0.492150465409356d0     0.364015709882433d0
Ti1      0.003941415796652d0     0.251710294708757d0     0.371218717673482d0
O1       0.503056242186000d0     0.999469602211721d0     0.450633008096356d0
O1       0.999859545734008d0     0.999746675079374d0     0.421435478137318d0
O1       0.200700038387324d0     0.250353119280093d0     0.501395960341918d0
O1       0.808728259598798d0     0.248582671628652d0     0.502514871499343d0
Ti1      0.997965562806488d0     0.497363264402741d0     0.509526187918713d0
Ti1      0.488864297705874d0     0.249550384269085d0     0.495984372637913d0
O1       0.006263722527630d0     0.998660356719338d0     0.582863930527921d0
O1       0.502793194058289d0     0.999479919766758d0     0.552802552445103d0
O1       0.696966132695437d0     0.250014028523426d0     0.637881839997776d0
O1       0.319708979021463d0     0.249680242110162d0     0.637791905007219d0
Ti1      0.500676082701631d0     0.499629217768291d0     0.624683082731855d0
Ti1      0.994770208384437d0     0.237230140030642d0     0.637606329735262d0
O1       0.500093721748991d0     0.000084921243389d0     0.186906639369252d0
O1       0.006954475138262d0     0.000748504425468d0     0.683872917328619d0
O1       0.198268504441574d0     0.250236248865719d0     0.238667392858710d0
O1       0.801993766892314d0     0.249987153755059d0     0.238669098461250d0
Ti1      0.000123603383822d0     0.999897385958536d0     0.238512187198856d0
Ti1      0.500142521004230d0     0.750038178055688d0     0.238522014307695d0
O1       0.000095322930372d0     0.500084774873452d0     0.317452257936818d0
O1       0.500112315057126d0     0.500084209992886d0     0.290342007718641d0
O1       0.698270105622955d0     0.750236102495782d0     0.369213011426276d0
O1       0.301995368073695d0     0.749987007385122d0     0.369214717028816d0
Ti1      0.506159074647391d0     0.992231881091547d0     0.363971731483032d0
Ti1      0.004717808574145d0     0.745116213921814d0     0.370974795031202d0
O1       0.503532579246557d0     0.499533166713319d0     0.450582555003832d0
O1       0.000443509396109d0     0.499717118667512d0     0.419304007198817d0
O1       0.200446873952403d0     0.748724512564677d0     0.501380344554656d0
O1       0.808672734066463d0     0.749357935605991d0     0.502495096459957d0
Ti1      0.989651285482402d0     0.997370654882470d0     0.500663452981216d0
Ti1      0.488518544578828d0     0.749231141332190d0     0.496006360078232d0
O1       0.007112379168558d0     0.498724078841891d0     0.582743130271699d0
O1       0.503099699623195d0     0.499696694434728d0     0.553057116745689d0
O1       0.697073884348338d0     0.749575409486194d0     0.637972926224822d0
O1       0.319327240434018d0     0.749907650042749d0     0.637836668093873d0
Ti1      0.499434849851515d0     0.999555641557617d0     0.624316145504422d0
Ti1      0.995718058602172d0     0.765876341056183d0     0.638079041631620d0
O1       0.500093721748991d0     0.500084921243389d0     0.186906639369252d0
O1       0.014495323309395d0     0.498940662104590d0     0.685670433885113d0
O1       0.198268504441574d0     0.750236248865719d0     0.238667392858710d0
O1       0.801993766892315d0     0.749987153755059d0     0.238669098461250d0
N1       0.056759586745477d0     0.530315465553440d0     0.773116284307529d0
N1       0.914786910239703d0     0.502320144056384d0     0.738964736585658d0
C1       0.006393507956351d0     0.554534307192651d0     0.823232959706564d0
H1       0.847352510150950d0     0.561278305729588d0     0.836057789411235d0
H1       0.126449609234539d0     0.568227807493010d0     0.851770734715201d0
K_POINTS automatic
4 4 1  0 0 0 
