&CONTROL
  calculation='relax',
  prefix='calc',
  pseudo_dir='/storage/coda1/p-amedford6/0/shared/rich_project_chbe-medford/medford-share/data/pseudos_module/espresso/nninc/pbe/van',
  outdir='.',
  tefield=.true.,
  dipfield=.true.,
  tprnfor=.true.,
  disk_io='none',
/
&SYSTEM
  ibrav=0,
  celldm(1)=1.8897261245650618d0,
  nat=56,
  ntyp=5,
  ecutwfc=29.39945797996531d00,
  ecutrho=293.9945797996531d00,
  nbnd=209,
  occupations='smearing',
  smearing='fd',
  degauss=0.007349864494991328d00,
  input_dft='BEEF-vdW',
  edir=3,
  emaxpos=0.006766697948289435d00,
  eopreg=0.025d00,
  eamp=0.0d00,
  nosym=.false.,
  noinv=.false.,
  nosym_evc=.false.,
  no_t_rev=.false.,
/
&ELECTRONS
  diagonalization='david',
  conv_thr=7.349864494991327e-08,
  mixing_beta=0.05d00,
  electron_maxstep=1000,
  startingpot='file',
  startingwfc='atomic',
/
&IONS
  ion_dynamics='ipi',
/
&CELL
  cell_dynamics='ipi',
/
CELL_PARAMETERS alat
    6.579727202290808d0     0.000000000000000d0     0.000000000000000d0
   -0.000775132442404d0     5.961596420607155d0     0.000000000000000d0
    0.000000000000000d0    -0.000000000000000d0    25.155947251439940d0
ATOMIC_SPECIES
Ti1 47.867d00 Ti.UPF
O1 15.999d00 O.UPF
N1 14.007d00 N.UPF
C1 12.011d00 C.UPF
H1 1.008d00 H.UPF
ATOMIC_POSITIONS {crystal}
Ti1      0.000123603383822d0     0.499897385958536d0     0.238512187198856d0
Ti1      0.500142521004230d0     0.250038178055688d0     0.238522014307695d0
O1       0.000095322930372d0     0.000084774873452d0     0.317452257936818d0
O1       0.500112315057126d0     0.000084209992886d0     0.290342007718641d0
O1       0.698270105622955d0     0.250236102495782d0     0.369213011426276d0
O1       0.301995368073695d0     0.249987007385122d0     0.369214717028816d0
Ti1      0.500198167309398d0     0.485761668506182d0     0.364758343030283d0
Ti1      0.000261424674789d0     0.248709163236136d0     0.368424970923767d0
O1       0.503374751102471d0     0.001332838058172d0     0.452227867726839d0
O1       0.001882992193933d0     0.999479849154423d0     0.422099495650131d0
O1       0.199866849797548d0     0.253851895238860d0     0.502654811063116d0
O1       0.807675256394817d0     0.253659010523265d0     0.502896194661575d0
Ti1      0.004463001284738d0     0.503153386902835d0     0.497321614116312d0
Ti1      0.506144109243473d0     0.254041924745749d0     0.497657077928728d0
O1       0.004616397349812d0     0.016220960674456d0     0.583702925720668d0
O1       0.504404492170582d0     0.003948367186652d0     0.556631136869947d0
O1       0.693998753492278d0     0.252502721312073d0     0.645246519157371d0
O1       0.311423597770537d0     0.252274939024377d0     0.643991891265792d0
Ti1      0.504809579444389d0     0.498948991289063d0     0.626333057656199d0
Ti1      0.009782736919832d0     0.243019716249394d0     0.638448938049507d0
O1       0.500093721748991d0     0.000084921243389d0     0.186906639369252d0
O1       0.003262176041145d0     0.979301221363593d0     0.684659716051979d0
O1       0.198268504441574d0     0.250236248865719d0     0.238667392858710d0
O1       0.801993766892314d0     0.249987153755059d0     0.238669098461250d0
Ti1      0.000123603383822d0     0.999897385958536d0     0.238512187198856d0
Ti1      0.500142521004230d0     0.750038178055688d0     0.238522014307695d0
O1       0.000095322930372d0     0.500084774873452d0     0.317452257936818d0
O1       0.500112315057126d0     0.500084209992886d0     0.290342007718641d0
O1       0.698270105622955d0     0.750236102495782d0     0.369213011426276d0
O1       0.301995368073695d0     0.749987007385122d0     0.369214717028816d0
Ti1      0.500001644927041d0     0.985370751416071d0     0.364779031055315d0
Ti1      0.000183276761494d0     0.748948988039575d0     0.368476322807288d0
O1       0.503691295134176d0     0.503877727406707d0     0.451960730293462d0
O1       0.001460782485842d0     0.499964783615161d0     0.422656139091726d0
O1       0.199233936376263d0     0.752156392966904d0     0.504204266589365d0
O1       0.808124726213796d0     0.752195391148344d0     0.504457913141540d0
Ti1      0.005727549465054d0     0.005038284494896d0     0.496894122287650d0
Ti1      0.505873854970394d0     0.753719106162588d0     0.498199014897045d0
O1       0.003656951320409d0     0.494393258647978d0     0.594482088412319d0
O1       0.504009589319295d0     0.499509096937183d0     0.555240160030306d0
O1       0.695704781188147d0     0.747313744421740d0     0.641924609226695d0
O1       0.312789866628563d0     0.747198738513438d0     0.642508883977556d0
Ti1      0.505656741005701d0     0.000819206742934d0     0.628081724279288d0
Ti1      0.003386922825010d0     0.782628890380718d0     0.629559420096486d0
O1       0.500093721748991d0     0.500084921243389d0     0.186906639369252d0
O1       0.198268504441574d0     0.750236248865719d0     0.238667392858710d0
O1       0.801993766892315d0     0.749987153755059d0     0.238669098461250d0
N1       0.156611856870415d0     0.520477040159125d0     0.749823569492745d0
N1       0.980785799335024d0     0.442763186293926d0     0.720738966333119d0
C1       0.099872143177323d0     0.638675319710760d0     0.798489102135932d0
H1       0.993053595578576d0     0.777265508280925d0     0.791445789561658d0
H1       0.032389196554882d0     0.520912864536118d0     0.826626756527326d0
H1       0.237852045848454d0     0.707194485707199d0     0.816060687983879d0
H1       0.865026585586798d0     0.558094478608543d0     0.722755098800289d0
H1       0.929453784701856d0     0.301793143173952d0     0.739255271518631d0
H1       0.227887367620161d0     0.629962572347157d0     0.725016397349007d0
K_POINTS automatic
4 4 1  0 0 0 
