&CONTROL
  calculation='relax',
  prefix='calc',
  pseudo_dir='/storage/coda1/p-amedford6/0/shared/rich_project_chbe-medford/medford-share/data/pseudos_module/espresso/nninc/pbe/van',
  outdir='.',
  tefield=.true.,
  dipfield=.true.,
  tprnfor=.true.,
  disk_io='none',
/
&SYSTEM
  ibrav=0,
  celldm(1)=1.8897261245650618d0,
  nat=55,
  ntyp=5,
  ecutwfc=29.39945797996531d00,
  ecutrho=293.9945797996531d00,
  nbnd=211,
  occupations='smearing',
  smearing='fd',
  degauss=0.007349864494991328d00,
  input_dft='BEEF-vdW',
  edir=3,
  emaxpos=0.012392003590760758d00,
  eopreg=0.025d00,
  eamp=0.0d00,
  nosym=.false.,
  noinv=.false.,
  nosym_evc=.false.,
  no_t_rev=.false.,
/
&ELECTRONS
  diagonalization='david',
  conv_thr=7.349864494991327e-08,
  mixing_beta=0.05d00,
  electron_maxstep=1000,
  startingwfc='atomic',
/
&IONS
  ion_dynamics='ipi',
/
&CELL
  cell_dynamics='ipi',
/
CELL_PARAMETERS alat
    6.579727202290808d0     0.000000000000000d0     0.000000000000000d0
   -0.000775132442404d0     5.961596420607155d0     0.000000000000000d0
    0.000000000000000d0    -0.000000000000000d0    25.155947251439940d0
ATOMIC_SPECIES
Ti1 47.867d00 Ti.UPF
O1 15.999d00 O.UPF
C1 12.011d00 C.UPF
H1 1.008d00 H.UPF
N1 14.007d00 N.UPF
ATOMIC_POSITIONS {crystal}
Ti1      0.000123603383822d0     0.499897385958537d0     0.238512187198856d0
Ti1      0.500142521004230d0     0.250038178055688d0     0.238522014307695d0
O1       0.000095322930372d0     0.000084774873452d0     0.317452257936818d0
O1       0.500112315057126d0     0.000084209992886d0     0.290342007718641d0
O1       0.698270105622955d0     0.250236102495782d0     0.369213011426276d0
O1       0.301995368073695d0     0.249987007385122d0     0.369214717028816d0
Ti1      0.503723823338258d0     0.502455600180377d0     0.363934100693890d0
Ti1      0.004865615853202d0     0.250151098239456d0     0.368503269709528d0
O1       0.503788576803757d0     0.999416390320601d0     0.452269585350992d0
O1       0.001111417499471d0     0.999718841966394d0     0.421938156647256d0
O1       0.199920907309864d0     0.249094267759066d0     0.503102611140366d0
O1       0.807775114119563d0     0.248936970841565d0     0.503727956965558d0
Ti1      0.005833466274458d0     0.498450890208476d0     0.498605813033893d0
Ti1      0.505463951978710d0     0.249734847349703d0     0.497583999837963d0
O1       0.008420461158497d0     0.996365353333914d0     0.584390605741334d0
O1       0.503510850560087d0     0.998363563260148d0     0.556875877426143d0
O1       0.700583581004108d0     0.250677312973754d0     0.643049213288799d0
O1       0.318210716823122d0     0.251580782323590d0     0.644177514919420d0
Ti1      0.509262255090733d0     0.497230300705261d0     0.625728222384030d0
Ti1      0.006674145760039d0     0.221368053308920d0     0.636307039327629d0
O1       0.500093721748991d0     0.000084921243389d0     0.186906639369252d0
O1       0.008122766739140d0     0.996513872269264d0     0.684920683975155d0
O1       0.198268504441574d0     0.250236248865719d0     0.238667392858710d0
O1       0.801993766892314d0     0.249987153755059d0     0.238669098461250d0
Ti1      0.000123603383822d0     0.999897385958537d0     0.238512187198856d0
Ti1      0.500142521004230d0     0.750038178055688d0     0.238522014307695d0
O1       0.000095322930372d0     0.500084774873452d0     0.317452257936818d0
O1       0.500112315057126d0     0.500084209992886d0     0.290342007718641d0
O1       0.698270105622955d0     0.750236102495782d0     0.369213011426276d0
O1       0.301995368073695d0     0.749987007385122d0     0.369214717028816d0
Ti1      0.503605338997557d0     0.002200808007255d0     0.363915080213545d0
Ti1      0.004881055149166d0     0.748328721480122d0     0.368585962320429d0
O1       0.503872045617189d0     0.499217215425752d0     0.451950859684642d0
O1       0.001417789307683d0     0.499564136898382d0     0.422651700192354d0
O1       0.199948950882571d0     0.748665626093222d0     0.503010977879767d0
O1       0.807601975200558d0     0.748927250055361d0     0.503657981928696d0
Ti1      0.004671158535858d0     0.998464329178882d0     0.496649388504324d0
Ti1      0.505483542888749d0     0.749176766326317d0     0.497620352916514d0
O1       0.009254812228410d0     0.498289504406934d0     0.591516664079901d0
O1       0.504310904000673d0     0.498683660621158d0     0.554805529453093d0
O1       0.700612305392167d0     0.744468317354167d0     0.642872628458022d0
O1       0.318040679284913d0     0.742871288599527d0     0.644273126247353d0
Ti1      0.506314720300209d0     0.997264239440083d0     0.628117014832081d0
Ti1      0.005012710984273d0     0.759414098249002d0     0.632280161016669d0
O1       0.500093721748991d0     0.500084921243389d0     0.186906639369252d0
O1       0.198268504441574d0     0.750236248865719d0     0.238667392858710d0
O1       0.801993766892315d0     0.749987153755059d0     0.238669098461250d0
C1       0.899649622612080d0     0.502505315120092d0     0.751264132304508d0
O1       0.026270233811097d0     0.496227142065660d0     0.704045477038168d0
H1       0.749034376614383d0     0.452001928891169d0     0.738783645921774d0
H1       0.168510531022040d0     0.507257080414064d0     0.714159514667467d0
H1       0.957487222417323d0     0.383363207029252d0     0.780410672569465d0
H1       0.897851436312118d0     0.672820430237410d0     0.766960725769600d0
N1       0.432712104441823d0     0.542059154790930d0     0.837877367812269d0
N1       0.381253873094376d0     0.532097974610472d0     0.796012855959283d0
K_POINTS automatic
4 4 1  0 0 0 
