&CONTROL
  calculation='relax',
  prefix='calc',
  pseudo_dir='/storage/coda1/p-amedford6/0/shared/rich_project_chbe-medford/medford-share/data/pseudos_module/espresso/nninc/pbe/van',
  outdir='.',
  tefield=.true.,
  dipfield=.true.,
  tprnfor=.true.,
  disk_io='none',
/
&SYSTEM
  ibrav=0,
  celldm(1)=1.8897261245650618d0,
  nat=55,
  ntyp=5,
  ecutwfc=29.39945797996531d00,
  ecutrho=293.9945797996531d00,
  nbnd=211,
  occupations='smearing',
  smearing='fd',
  degauss=0.007349864494991328d00,
  input_dft='BEEF-vdW',
  edir=3,
  emaxpos=0.9862748959834071d00,
  eopreg=0.025d00,
  eamp=0.0d00,
  nosym=.false.,
  noinv=.false.,
  nosym_evc=.false.,
  no_t_rev=.false.,
/
&ELECTRONS
  diagonalization='david',
  conv_thr=7.349864494991327e-08,
  mixing_beta=0.05d00,
  electron_maxstep=1000,
  startingwfc='atomic',
/
&IONS
  ion_dynamics='ipi',
/
&CELL
  cell_dynamics='ipi',
/
CELL_PARAMETERS alat
    6.579727202290808d0     0.000000000000000d0     0.000000000000000d0
   -0.000775132442404d0     5.961596420607155d0     0.000000000000000d0
    0.000000000000000d0    -0.000000000000000d0    25.155947251439940d0
ATOMIC_SPECIES
Ti1 47.867d00 Ti.UPF
O1 15.999d00 O.UPF
C1 12.011d00 C.UPF
H1 1.008d00 H.UPF
N1 14.007d00 N.UPF
ATOMIC_POSITIONS {crystal}
Ti1      0.000123603383822d0     0.499897385958537d0     0.238512187198856d0
Ti1      0.500142521004230d0     0.250038178055688d0     0.238522014307695d0
O1       0.000095322930372d0     0.000084774873452d0     0.317452257936818d0
O1       0.500112315057126d0     0.000084209992886d0     0.290342007718641d0
O1       0.698270105622955d0     0.250236102495782d0     0.369213011426276d0
O1       0.301995368073695d0     0.249987007385122d0     0.369214717028816d0
Ti1      0.504006076684693d0     0.499786800920951d0     0.364014942521145d0
Ti1      0.005274700738358d0     0.250848372298527d0     0.368007075384821d0
O1       0.498563968669377d0     0.000087490206746d0     0.453018956241253d0
O1       0.999348226293039d0     0.000461120365726d0     0.421785836533197d0
O1       0.193216423338020d0     0.252417131125037d0     0.503363629887621d0
O1       0.802796862300677d0     0.253057110596729d0     0.503162281028479d0
Ti1      0.997235194476358d0     0.502015558606281d0     0.496471005959786d0
Ti1      0.495929199432430d0     0.249630504601118d0     0.498491310337008d0
O1       0.994915984405402d0     0.006436295361729d0     0.583754906181091d0
O1       0.497929337909325d0     0.005271572861228d0     0.557367136428865d0
O1       0.691251861770894d0     0.255949289774221d0     0.644352784604956d0
O1       0.305389265051776d0     0.255577043079893d0     0.644288072091786d0
Ti1      0.495761346505890d0     0.504554531833741d0     0.627683309133204d0
Ti1      0.994922660747808d0     0.227984293194428d0     0.635401340508637d0
O1       0.500093721748991d0     0.000084921243389d0     0.186906639369252d0
O1       0.000962875658350d0     0.995090409908911d0     0.684814546999632d0
O1       0.198268504441574d0     0.250236248865719d0     0.238667392858710d0
O1       0.801993766892314d0     0.249987153755059d0     0.238669098461250d0
Ti1      0.000123603383822d0     0.999897385958537d0     0.238512187198856d0
Ti1      0.500142521004230d0     0.750038178055688d0     0.238522014307695d0
O1       0.000095322930372d0     0.500084774873452d0     0.317452257936818d0
O1       0.500112315057126d0     0.500084209992886d0     0.290342007718641d0
O1       0.698270105622955d0     0.750236102495782d0     0.369213011426276d0
O1       0.301995368073695d0     0.749987007385122d0     0.369214717028816d0
Ti1      0.503952437289836d0     0.999511772323921d0     0.363976069158900d0
Ti1      0.005270536739023d0     0.750869833449649d0     0.367804545923171d0
O1       0.497847425085031d0     0.501790614526303d0     0.452780762442804d0
O1       0.999800151049868d0     0.501441088354444d0     0.422432906407478d0
O1       0.193319885782768d0     0.751194427237531d0     0.504193262154289d0
O1       0.802818415844690d0     0.750577329606448d0     0.503938300933180d0
Ti1      0.995764267027190d0     0.002457225508050d0     0.496054339681983d0
Ti1      0.495692186466615d0     0.749236138916568d0     0.498635663769586d0
O1       0.998999224366763d0     0.499289259675827d0     0.596467070575039d0
O1       0.497848874117704d0     0.501429717329030d0     0.556311507300620d0
O1       0.690202166821319d0     0.751395068686458d0     0.642834776734898d0
O1       0.305255445996193d0     0.752346922015162d0     0.641780224770651d0
Ti1      0.496160721306357d0     0.004577814108244d0     0.629069715355975d0
Ti1      0.993958751683892d0     0.774837575620202d0     0.632021851333523d0
O1       0.500093721748991d0     0.500084921243389d0     0.186906639369252d0
O1       0.198268504441574d0     0.750236248865719d0     0.238667392858710d0
O1       0.801993766892315d0     0.749987153755059d0     0.238669098461250d0
C1       0.043012555553679d0     0.546158664689391d0     0.765963435466950d0
O1       0.196916128990144d0     0.711063742847682d0     0.770445118415946d0
H1       0.097543738945711d0     0.395237528368278d0     0.785643152597562d0
H1       0.151417499992154d0     0.844323254130576d0     0.751529783604047d0
H1       0.898585669401760d0     0.598673888327058d0     0.783568296558519d0
H1       0.011953604192033d0     0.500821723274570d0     0.723884185214873d0
N1       0.496160721306357d0     0.004577814108244d0     0.760251418315346d0
N1       0.496160721306357d0     0.004577814108244d0     0.715332418100185d0
K_POINTS automatic
4 4 1  0 0 0 
