&CONTROL
  calculation='relax',
  prefix='calc',
  pseudo_dir='/storage/coda1/p-amedford6/0/shared/rich_project_chbe-medford/medford-share/data/pseudos_module/espresso/nninc/pbe/van',
  outdir='.',
  tefield=.true.,
  dipfield=.true.,
  tprnfor=.true.,
  disk_io='none',
/
&SYSTEM
  ibrav=0,
  celldm(1)=1.8897261245650618d0,
  nat=52,
  ntyp=4,
  ecutwfc=29.39945797996531d00,
  ecutrho=293.9945797996531d00,
  nbnd=208,
  occupations='smearing',
  smearing='fd',
  degauss=0.007349864494991328d00,
  input_dft='BEEF-vdW',
  edir=3,
  emaxpos=0.9734066448085925d00,
  eopreg=0.025d00,
  eamp=0.0d00,
  nosym=.false.,
  noinv=.false.,
  nosym_evc=.false.,
  no_t_rev=.false.,
/
&ELECTRONS
  diagonalization='david',
  conv_thr=7.349864494991327e-08,
  mixing_beta=0.05d00,
  electron_maxstep=1000,
  startingpot='file',
  startingwfc='atomic',
/
&IONS
  ion_dynamics='ipi',
/
&CELL
  cell_dynamics='ipi',
/
CELL_PARAMETERS alat
    6.579727202290808d0     0.000000000000000d0     0.000000000000000d0
   -0.000775132442404d0     5.961596420607155d0     0.000000000000000d0
    0.000000000000000d0    -0.000000000000000d0    25.155947251439940d0
ATOMIC_SPECIES
C1 12.011d00 C.UPF
H1 1.008d00 H.UPF
O1 15.999d00 O.UPF
Ti1 47.867d00 Ti.UPF
ATOMIC_POSITIONS {crystal}
C1       0.975398540147038d0     0.513792746981920d0     0.745085158162375d0
H1       0.974463619114287d0     0.691307392978810d0     0.759906650247932d0
O1       0.500093721748991d0     0.000084921243389d0     0.186906639369252d0
O1       0.500093721748991d0     0.500084921243389d0     0.186906639369252d0
O1       0.198268504441574d0     0.250236248865719d0     0.238667392858710d0
O1       0.198268504441574d0     0.750236248865719d0     0.238667392858710d0
O1       0.801993766892314d0     0.249987153755059d0     0.238669098461250d0
O1       0.801993766892315d0     0.749987153755059d0     0.238669098461250d0
O1       0.500112315057126d0     0.000084209992886d0     0.290342007718641d0
O1       0.500112315057126d0     0.500084209992886d0     0.290342007718641d0
O1       0.000095322930372d0     0.000084774873452d0     0.317452257936818d0
O1       0.000095322930372d0     0.500084774873452d0     0.317452257936818d0
O1       0.698270105622955d0     0.250236102495782d0     0.369213011426276d0
O1       0.698270105622955d0     0.750236102495782d0     0.369213011426276d0
O1       0.301995368073695d0     0.249987007385122d0     0.369214717028816d0
O1       0.301995368073695d0     0.749987007385122d0     0.369214717028816d0
O1       0.000965875619984d0     0.000638064720536d0     0.420920477310900d0
O1       0.000606424843815d0     0.502134740707738d0     0.419522891874413d0
O1       0.499894221808395d0     0.495809545282592d0     0.449305083984065d0
O1       0.499856257852270d0     0.003035505909038d0     0.450329082960118d0
O1       0.193001566085354d0     0.752394588056523d0     0.502808235824126d0
O1       0.192780487816106d0     0.253002419689431d0     0.502265146782189d0
O1       0.807374343461345d0     0.752018535510177d0     0.502652595026024d0
O1       0.805875345636716d0     0.252924008427375d0     0.502227864980385d0
O1       0.500176822021055d0     0.497889518811244d0     0.552878872464934d0
O1       0.500102716469145d0     0.994929396709461d0     0.553318988307761d0
O1       0.001565567402483d0     0.002463941339786d0     0.584219955245255d0
O1       0.996841128760999d0     0.497032115720245d0     0.585216065195705d0
O1       0.690028721782778d0     0.738317488076096d0     0.638702069382604d0
O1       0.689890118450293d0     0.250621776169144d0     0.641116794554483d0
O1       0.305253012522633d0     0.254240551659618d0     0.641089996124163d0
O1       0.305031293773425d0     0.737260985992019d0     0.638528393491947d0
O1       0.999364610411833d0     0.989935799534262d0     0.683652196302401d0
O1       0.993480092685644d0     0.508266922952044d0     0.695484043182106d0
Ti1      0.000123603383822d0     0.499897385958537d0     0.238512187198856d0
Ti1      0.000123603383822d0     0.999897385958537d0     0.238512187198856d0
Ti1      0.500142521004230d0     0.250038178055688d0     0.238522014307695d0
Ti1      0.500142521004230d0     0.750038178055688d0     0.238522014307695d0
Ti1      0.506511781148030d0     0.010782724121473d0     0.364644774260851d0
Ti1      0.507238406164670d0     0.510667904312182d0     0.366193452440049d0
Ti1      0.009631468561188d0     0.756671927664280d0     0.368493496217853d0
Ti1      0.008795471988415d0     0.267003526979794d0     0.372055096666557d0
Ti1      0.003964330416372d0     0.990728603991695d0     0.496523262479515d0
Ti1      0.500530800857139d0     0.781465488222116d0     0.504485291191595d0
Ti1      0.497816822336543d0     0.261436705796312d0     0.494299935514064d0
Ti1      0.994463384555981d0     0.490462421628072d0     0.508962154273394d0
Ti1      0.500765500667026d0     0.494421689457945d0     0.623522510856991d0
Ti1      0.509853378098950d0     0.994082248118903d0     0.650150455000431d0
Ti1      0.009517000490689d0     0.758935934629108d0     0.630820439148842d0
Ti1      0.006166617266680d0     0.220371696314401d0     0.638977835688065d0
O1       0.501693404172931d0     0.983047591580756d0     0.721826220018770d0
H1       0.514142511875111d0     0.101903443917570d0     0.747840282604127d0
K_POINTS automatic
4 4 1  0 0 0 
