&CONTROL
  calculation='relax',
  prefix='calc',
  pseudo_dir='/storage/coda1/p-amedford6/0/shared/rich_project_chbe-medford/medford-share/data/pseudos_module/espresso/nninc/pbe/van',
  outdir='.',
  tefield=.true.,
  dipfield=.true.,
  tprnfor=.true.,
  disk_io='none',
/
&SYSTEM
  ibrav=0,
  celldm(1)=1.8897261245650618d0,
  nat=53,
  ntyp=5,
  ecutwfc=29.39945797996531d00,
  ecutrho=293.9945797996531d00,
  nbnd=207,
  occupations='smearing',
  smearing='fd',
  degauss=0.007349864494991328d00,
  input_dft='BEEF-vdW',
  edir=3,
  emaxpos=0.0025749810203852252d00,
  eopreg=0.025d00,
  eamp=0.0d00,
  nosym=.false.,
  noinv=.false.,
  nosym_evc=.false.,
  no_t_rev=.false.,
/
&ELECTRONS
  diagonalization='david',
  conv_thr=7.349864494991327e-08,
  mixing_beta=0.05d00,
  electron_maxstep=1000,
  startingpot='file',
  startingwfc='atomic',
/
&IONS
  ion_dynamics='ipi',
/
&CELL
  cell_dynamics='ipi',
/
CELL_PARAMETERS alat
    6.579727202290808d0     0.000000000000000d0     0.000000000000000d0
   -0.000775132442404d0     5.961596420607155d0     0.000000000000000d0
    0.000000000000000d0    -0.000000000000000d0    25.155947251439940d0
ATOMIC_SPECIES
Ti1 47.867d00 Ti.UPF
O1 15.999d00 O.UPF
N1 14.007d00 N.UPF
C1 12.011d00 C.UPF
H1 1.008d00 H.UPF
ATOMIC_POSITIONS {crystal}
Ti1      0.000123603383822d0     0.499897385958536d0     0.238512187198856d0
Ti1      0.500142521004230d0     0.250038178055688d0     0.238522014307695d0
O1       0.000095322930372d0     0.000084774873452d0     0.317452257936818d0
O1       0.500112315057126d0     0.000084209992886d0     0.290342007718641d0
O1       0.698270105622955d0     0.250236102495782d0     0.369213011426276d0
O1       0.301995368073695d0     0.249987007385122d0     0.369214717028816d0
Ti1      0.500198167309398d0     0.485761668506182d0     0.364758343030283d0
Ti1      0.000261424674789d0     0.248709163236136d0     0.368424970923767d0
O1       0.500357297578874d0     0.000613297808063d0     0.450204092275108d0
O1       0.001882992193933d0     0.999479849154423d0     0.422099495650131d0
O1       0.195490898336754d0     0.249760760704786d0     0.501902051395124d0
O1       0.801424152128180d0     0.248735289316191d0     0.501579663812427d0
Ti1      0.009804263074556d0     0.504448436420692d0     0.500413086103366d0
Ti1      0.513238022900700d0     0.250119730842527d0     0.495969110070457d0
O1       0.999884620144584d0     0.999221634801669d0     0.583644372659785d0
O1       0.498798548326349d0     0.000420649598305d0     0.552753267652635d0
O1       0.686565523890479d0     0.255546056065059d0     0.637375882274808d0
O1       0.311214547398874d0     0.256032038160887d0     0.637834523346805d0
Ti1      0.497706264317259d0     0.505363899134899d0     0.624045319225540d0
Ti1      0.995695813796642d0     0.265738188259893d0     0.627507172543697d0
O1       0.500093721748991d0     0.000084921243389d0     0.186906639369252d0
O1       0.999166393914717d0     0.010220781973137d0     0.687443160034402d0
O1       0.198268504441574d0     0.250236248865719d0     0.238667392858710d0
O1       0.801993766892314d0     0.249987153755059d0     0.238669098461250d0
Ti1      0.000123603383822d0     0.999897385958536d0     0.238512187198856d0
Ti1      0.500142521004230d0     0.750038178055688d0     0.238522014307695d0
O1       0.000095322930372d0     0.500084774873452d0     0.317452257936818d0
O1       0.500112315057126d0     0.500084209992886d0     0.290342007718641d0
O1       0.698270105622955d0     0.750236102495782d0     0.369213011426276d0
O1       0.301995368073695d0     0.749987007385122d0     0.369214717028816d0
Ti1      0.500001644927041d0     0.985370751416071d0     0.364779031055315d0
Ti1      0.000183276761494d0     0.748948988039575d0     0.368476322807288d0
O1       0.500344309519297d0     0.500387085218465d0     0.450244870931849d0
O1       0.001460782485842d0     0.499964783615161d0     0.422656139091726d0
O1       0.195526241082292d0     0.751216385178119d0     0.501734569527278d0
O1       0.802243430082095d0     0.750742086444623d0     0.501388169837863d0
Ti1      0.009366889637393d0     0.002637385381520d0     0.499722790414295d0
Ti1      0.513737098580634d0     0.750250535281331d0     0.496065821313998d0
O1       0.998480695183749d0     0.499132054108943d0     0.581787879474083d0
O1       0.499203264710006d0     0.503565881790562d0     0.552565320569841d0
O1       0.686615244443162d0     0.755709819842423d0     0.639955738793759d0
O1       0.310267581820299d0     0.755037691716891d0     0.639894929928260d0
Ti1      0.496682177095257d0     0.004924760769292d0     0.624269299743927d0
Ti1      0.996974608819987d0     0.786846053003631d0     0.643054892890134d0
O1       0.500093721748991d0     0.500084921243389d0     0.186906639369252d0
O1       0.198268504441574d0     0.750236248865719d0     0.238667392858710d0
O1       0.801993766892315d0     0.749987153755059d0     0.238669098461250d0
N1       0.014210667086102d0     0.434480320216151d0     0.737749409837905d0
N1       0.999423087911876d0     0.492128520487974d0     0.688214486104157d0
C1       0.028787730747541d0     0.561306151000335d0     0.780310489359119d0
H1       0.038668036554149d0     0.478761611612773d0     0.818243322671518d0
H1       0.028827032804129d0     0.740935279310359d0     0.775557693878713d0
H1       0.013240083508014d0     0.262075634226175d0     0.742942316017278d0
K_POINTS automatic
4 4 1  0 0 0 
