&CONTROL
  calculation='relax',
  prefix='calc',
  pseudo_dir='/storage/coda1/p-amedford6/0/shared/rich_project_chbe-medford/medford-share/data/pseudos_module/espresso/nninc/pbe/van',
  outdir='.',
  tefield=.true.,
  dipfield=.true.,
  tprnfor=.true.,
  disk_io='none',
/
&SYSTEM
  ibrav=0,
  celldm(1)=1.8897261245650618d0,
  nat=55,
  ntyp=5,
  ecutwfc=29.39945797996531d00,
  ecutrho=293.9945797996531d00,
  nbnd=208,
  occupations='smearing',
  smearing='fd',
  degauss=0.007349864494991328d00,
  input_dft='BEEF-vdW',
  edir=3,
  emaxpos=0.9801380251391645d00,
  eopreg=0.025d00,
  eamp=0.0d00,
  nosym=.false.,
  noinv=.false.,
  nosym_evc=.false.,
  no_t_rev=.false.,
/
&ELECTRONS
  diagonalization='david',
  conv_thr=7.349864494991327e-08,
  mixing_beta=0.05d00,
  electron_maxstep=1000,
  startingpot='file',
  startingwfc='atomic',
/
&IONS
  ion_dynamics='ipi',
/
&CELL
  cell_dynamics='ipi',
/
CELL_PARAMETERS alat
    6.579727202290808d0     0.000000000000000d0     0.000000000000000d0
   -0.000775132442404d0     5.961596420607155d0     0.000000000000000d0
    0.000000000000000d0    -0.000000000000000d0    25.155947251439940d0
ATOMIC_SPECIES
Ti1 47.867d00 Ti.UPF
O1 15.999d00 O.UPF
N1 14.007d00 N.UPF
C1 12.011d00 C.UPF
H1 1.008d00 H.UPF
ATOMIC_POSITIONS {crystal}
Ti1      0.000123603383822d0     0.499897385958536d0     0.238512187198856d0
Ti1      0.500142521004230d0     0.250038178055688d0     0.238522014307695d0
O1       0.000095322930372d0     0.000084774873452d0     0.317452257936818d0
O1       0.500112315057126d0     0.000084209992886d0     0.290342007718641d0
O1       0.698270105622955d0     0.250236102495782d0     0.369213011426276d0
O1       0.301995368073695d0     0.249987007385122d0     0.369214717028816d0
Ti1      0.500198167309398d0     0.485761668506182d0     0.364758343030283d0
Ti1      0.000261424674789d0     0.248709163236136d0     0.368424970923767d0
O1       0.500213917659052d0     0.999493511234471d0     0.452607446492461d0
O1       0.001882992193933d0     0.999479849154423d0     0.422099495650131d0
O1       0.195758337584014d0     0.249393173775249d0     0.504817977693479d0
O1       0.805053569570731d0     0.249886742716147d0     0.504216910199150d0
Ti1      0.000539785006553d0     0.498596485469588d0     0.496985017540465d0
Ti1      0.501183627963299d0     0.247422130677953d0     0.498536892261656d0
O1       0.995460582382498d0     0.987057245240563d0     0.584454280174105d0
O1       0.502520387374216d0     0.997619843537735d0     0.556835825564409d0
O1       0.689394582589862d0     0.254958567081240d0     0.643227008857004d0
O1       0.306207568494782d0     0.252234586555237d0     0.641028366709815d0
Ti1      0.497380686461222d0     0.502417197667221d0     0.627530185380567d0
Ti1      0.997492410023674d0     0.218847426708640d0     0.630904335656994d0
O1       0.500093721748991d0     0.000084921243389d0     0.186906639369252d0
O1       0.000296788970347d0     0.026077843924586d0     0.687401309200801d0
O1       0.198268504441574d0     0.250236248865719d0     0.238667392858710d0
O1       0.801993766892314d0     0.249987153755059d0     0.238669098461250d0
Ti1      0.000123603383822d0     0.999897385958536d0     0.238512187198856d0
Ti1      0.500142521004230d0     0.750038178055688d0     0.238522014307695d0
O1       0.000095322930372d0     0.500084774873452d0     0.317452257936818d0
O1       0.500112315057126d0     0.500084209992886d0     0.290342007718641d0
O1       0.698270105622955d0     0.750236102495782d0     0.369213011426276d0
O1       0.301995368073695d0     0.749987007385122d0     0.369214717028816d0
Ti1      0.500001644927041d0     0.985370751416071d0     0.364779031055315d0
Ti1      0.000183276761494d0     0.748948988039575d0     0.368476322807288d0
O1       0.500118668698559d0     0.497325411475672d0     0.452310004735253d0
O1       0.001460782485842d0     0.499964783615161d0     0.422656139091726d0
O1       0.196265505959259d0     0.747783236411179d0     0.503517094244399d0
O1       0.804819161928845d0     0.747299792769568d0     0.502943317975478d0
Ti1      0.001373138027314d0     0.997000210222122d0     0.496963555875944d0
Ti1      0.501474181661498d0     0.746298455924476d0     0.498242266859095d0
O1       0.996234420063879d0     0.505892881199864d0     0.595605944297568d0
O1       0.501005924235140d0     0.502839612033296d0     0.556021488259774d0
O1       0.687743992913542d0     0.749723524587948d0     0.646559516625258d0
O1       0.304121489723717d0     0.751140102750324d0     0.644442837256146d0
Ti1      0.501518966810524d0     0.002344685422966d0     0.628207753428535d0
Ti1      0.004628253495368d0     0.758032472074112d0     0.637479328558631d0
O1       0.500093721748991d0     0.500084921243389d0     0.186906639369252d0
O1       0.198268504441574d0     0.750236248865719d0     0.238667392858710d0
O1       0.801993766892315d0     0.749987153755059d0     0.238669098461250d0
N1       0.113891004176388d0     0.419488608938427d0     0.748744797933434d0
N1       0.978372829655249d0     0.572524076809921d0     0.722498941685638d0
C1       0.299903189294406d0     0.489373371012786d0     0.763004860210496d0
H1       0.324708530761563d0     0.663318095080647d0     0.773138458206257d0
H1       0.409414452598767d0     0.361006271961633d0     0.773369410909077d0
H1       0.096624612621450d0     0.259591767655863d0     0.733966731902691d0
H1       0.987009229314946d0     0.723945748623223d0     0.741422671338657d0
H1       0.834298560689152d0     0.513700817458960d0     0.727848441438304d0
K_POINTS automatic
4 4 1  0 0 0 
