&CONTROL
  calculation='relax',
  prefix='calc',
  pseudo_dir='/storage/coda1/p-amedford6/0/shared/rich_project_chbe-medford/medford-share/data/pseudos_module/espresso/nninc/pbe/van',
  outdir='.',
  tefield=.true.,
  dipfield=.true.,
  tprnfor=.true.,
  disk_io='none',
/
&SYSTEM
  ibrav=0,
  celldm(1)=1.8897261245650618d0,
  nat=2,
  ntyp=1,
  ecutwfc=73.49864494991327d00,
  ecutrho=293.9945797996531d00,
  nbnd=16,
  occupations='smearing',
  smearing='fd',
  degauss=0.007349864494991328d00,
  nspin=2,
  starting_magnetization(1)=0.16666666666666666d00,
  input_dft='BEEF-vdW',
  edir=3,
  emaxpos=0.0d00,
  eopreg=0.025d00,
  eamp=0.0d00,
  nosym=.false.,
  noinv=.false.,
  nosym_evc=.false.,
  no_t_rev=.false.,
/
&ELECTRONS
  diagonalization='david',
  conv_thr=7.349864494991327e-08,
  mixing_beta=0.05d00,
  electron_maxstep=1000,
  startingwfc='atomic',
/
&IONS
  ion_dynamics='ipi',
/
&CELL
  cell_dynamics='ipi',
/
CELL_PARAMETERS alat
   10.000000000000000d0     0.000000000000000d0     0.000000000000000d0
    0.000000000000000d0    10.000000000000000d0     0.000000000000000d0
    0.000000000000000d0     0.000000000000000d0    10.622978000000000d0
ATOMIC_SPECIES
O1 15.999d00 O.UPF
ATOMIC_POSITIONS {crystal}
O1       0.499999878595711d0     0.500000036499447d0     0.557486012414662d0
O1       0.500000121404290d0     0.499999963500553d0     0.442513987585337d0
K_POINTS automatic
1 1 1  0 0 0 
