&CONTROL
  calculation='relax',
  prefix='calc',
  pseudo_dir='/storage/coda1/p-amedford6/0/shared/rich_project_chbe-medford/medford-share/data/pseudos_module/espresso/nninc/pbe/van',
  outdir='.',
  tefield=.true.,
  dipfield=.true.,
  tprnfor=.true.,
  disk_io='none',
/
&SYSTEM
  ibrav=0,
  celldm(1)=1.8897261245650618d0,
  nat=55,
  ntyp=5,
  ecutwfc=29.39945797996531d00,
  ecutrho=293.9945797996531d00,
  nbnd=211,
  occupations='smearing',
  smearing='fd',
  degauss=0.007349864494991328d00,
  input_dft='BEEF-vdW',
  edir=3,
  emaxpos=0.9840542483247239d00,
  eopreg=0.025d00,
  eamp=0.0d00,
  nosym=.false.,
  noinv=.false.,
  nosym_evc=.false.,
  no_t_rev=.false.,
/
&ELECTRONS
  diagonalization='david',
  conv_thr=7.349864494991327e-08,
  mixing_beta=0.05d00,
  electron_maxstep=1000,
  startingwfc='atomic',
/
&IONS
  ion_dynamics='ipi',
/
&CELL
  cell_dynamics='ipi',
/
CELL_PARAMETERS alat
    6.579727202290808d0     0.000000000000000d0     0.000000000000000d0
   -0.000775132442404d0     5.961596420607155d0     0.000000000000000d0
    0.000000000000000d0    -0.000000000000000d0    25.155947251439940d0
ATOMIC_SPECIES
Ti1 47.867d00 Ti.UPF
O1 15.999d00 O.UPF
C1 12.011d00 C.UPF
H1 1.008d00 H.UPF
N1 14.007d00 N.UPF
ATOMIC_POSITIONS {crystal}
Ti1      0.000123603383822d0     0.499897385958537d0     0.238512187198856d0
Ti1      0.500142521004230d0     0.250038178055688d0     0.238522014307695d0
O1       0.000095322930372d0     0.000084774873452d0     0.317452257936818d0
O1       0.500112315057126d0     0.000084209992886d0     0.290342007718641d0
O1       0.698270105622955d0     0.250236102495782d0     0.369213011426276d0
O1       0.301995368073695d0     0.249987007385122d0     0.369214717028816d0
Ti1      0.505581886645024d0     0.505227078221891d0     0.363834861499406d0
Ti1      0.006910418249326d0     0.252888755870307d0     0.368548775183349d0
O1       0.501499586136045d0     0.002731645345774d0     0.450130088191251d0
O1       0.003697748595384d0     0.000778696222666d0     0.420824223856474d0
O1       0.200464567785730d0     0.253932894743583d0     0.501138417028889d0
O1       0.806222514158137d0     0.251889960030653d0     0.501192158114462d0
Ti1      0.003844500705208d0     0.504173518371697d0     0.498758901283150d0
Ti1      0.505850978046854d0     0.254616598677313d0     0.495268529281533d0
O1       0.999275724774066d0     0.002421941302974d0     0.581163342635354d0
O1       0.503356107665833d0     0.005809650192982d0     0.554242560194485d0
O1       0.691289654059203d0     0.254709652509156d0     0.642675128203630d0
O1       0.304945921457765d0     0.259081136984307d0     0.641392721888992d0
Ti1      0.499515129892410d0     0.504255708314398d0     0.623340302399336d0
Ti1      0.993123610574184d0     0.231888236723187d0     0.632219670515244d0
O1       0.500093721748991d0     0.000084921243389d0     0.186906639369252d0
O1       0.999221694995108d0     0.995476498847195d0     0.681017880443076d0
O1       0.198268504441574d0     0.250236248865719d0     0.238667392858710d0
O1       0.801993766892314d0     0.249987153755059d0     0.238669098461250d0
Ti1      0.000123603383822d0     0.999897385958537d0     0.238512187198856d0
Ti1      0.500142521004230d0     0.750038178055688d0     0.238522014307695d0
O1       0.000095322930372d0     0.500084774873452d0     0.317452257936818d0
O1       0.500112315057126d0     0.500084209992886d0     0.290342007718641d0
O1       0.698270105622955d0     0.750236102495782d0     0.369213011426276d0
O1       0.301995368073695d0     0.749987007385122d0     0.369214717028816d0
Ti1      0.505202955283445d0     0.005399225295111d0     0.364027839985527d0
Ti1      0.006983220544533d0     0.749406336944117d0     0.368353337854962d0
O1       0.504053813213707d0     0.503986876795235d0     0.449522096215181d0
O1       0.001550374718739d0     0.501399333373804d0     0.421762077709220d0
O1       0.199315368110601d0     0.752118959573846d0     0.501997676234413d0
O1       0.806158828306992d0     0.754017237003669d0     0.501587922185478d0
Ti1      0.005390193976099d0     0.004973984841766d0     0.495078865165416d0
Ti1      0.505481777993020d0     0.753774957071849d0     0.495368219927002d0
O1       0.997802089313482d0     0.498422619733956d0     0.587675439488001d0
O1       0.503194484785421d0     0.502176516565786d0     0.552568193635342d0
O1       0.690384828346018d0     0.749499997030425d0     0.639879279974451d0
O1       0.308166303139662d0     0.748113491053529d0     0.639580518299580d0
Ti1      0.497348819148447d0     0.004481460496638d0     0.625303512856422d0
Ti1      0.997251050940343d0     0.768963828790459d0     0.630256800564633d0
O1       0.500093721748991d0     0.500084921243389d0     0.186906639369252d0
O1       0.198268504441574d0     0.750236248865719d0     0.238667392858710d0
O1       0.801993766892315d0     0.749987153755059d0     0.238669098461250d0
C1       0.907806881860734d0     0.509380225653744d0     0.750371433023435d0
O1       0.024996717295366d0     0.498730964206033d0     0.701232055765898d0
H1       0.752221406678254d0     0.467805811753806d0     0.740766051856052d0
H1       0.167792291554080d0     0.474578359093695d0     0.708830528922528d0
H1       0.966978843665722d0     0.387797026145439d0     0.778928635129260d0
H1       0.916987590542380d0     0.680233367102424d0     0.765536626616938d0
N1       0.415798803068793d0     0.851272936434741d0     0.781201857280195d0
N1       0.427633427880912d0     0.696829242493179d0     0.756885208792530d0
K_POINTS automatic
4 4 1  0 0 0 
