&CONTROL
  calculation='relax',
  prefix='calc',
  pseudo_dir='/storage/coda1/p-amedford6/0/shared/rich_project_chbe-medford/medford-share/data/pseudos_module/espresso/nninc/pbe/van',
  outdir='.',
  tefield=.true.,
  dipfield=.true.,
  tprnfor=.true.,
  disk_io='none',
/
&SYSTEM
  ibrav=0,
  celldm(1)=1.8897261245650618d0,
  nat=53,
  ntyp=5,
  ecutwfc=29.39945797996531d00,
  ecutrho=293.9945797996531d00,
  nbnd=207,
  occupations='smearing',
  smearing='fd',
  degauss=0.007349864494991328d00,
  input_dft='BEEF-vdW',
  edir=3,
  emaxpos=0.9994166276825793d00,
  eopreg=0.025d00,
  eamp=0.0d00,
  nosym=.false.,
  noinv=.false.,
  nosym_evc=.false.,
  no_t_rev=.false.,
/
&ELECTRONS
  diagonalization='david',
  conv_thr=7.349864494991327e-08,
  mixing_beta=0.05d00,
  electron_maxstep=1000,
  startingwfc='atomic',
/
&IONS
  ion_dynamics='ipi',
/
&CELL
  cell_dynamics='ipi',
/
CELL_PARAMETERS alat
    6.579727202290808d0     0.000000000000000d0     0.000000000000000d0
   -0.000775132442404d0     5.961596420607155d0     0.000000000000000d0
    0.000000000000000d0    -0.000000000000000d0    25.155947251439940d0
ATOMIC_SPECIES
Ti1 47.867d00 Ti.UPF
O1 15.999d00 O.UPF
N1 14.007d00 N.UPF
C1 12.011d00 C.UPF
H1 1.008d00 H.UPF
ATOMIC_POSITIONS {crystal}
Ti1      0.000123603383822d0     0.499897385958536d0     0.238512187198856d0
Ti1      0.500142521004230d0     0.250038178055688d0     0.238522014307695d0
O1       0.000095322930372d0     0.000084774873452d0     0.317452257936818d0
O1       0.500112315057126d0     0.000084209992886d0     0.290342007718641d0
O1       0.698270105622955d0     0.250236102495782d0     0.369213011426276d0
O1       0.301995368073695d0     0.249987007385122d0     0.369214717028816d0
Ti1      0.500198167309398d0     0.485761668506182d0     0.364758343030283d0
Ti1      0.000261424674789d0     0.248709163236136d0     0.368424970923767d0
O1       0.499846970959787d0     0.996506445157940d0     0.450535149366828d0
O1       0.001882992193933d0     0.999479849154423d0     0.422099495650131d0
O1       0.196131556160660d0     0.245837201010372d0     0.501924432202058d0
O1       0.801305926461432d0     0.246326261931971d0     0.501287487415095d0
Ti1      0.009413465017124d0     0.492929574471687d0     0.501701483132745d0
Ti1      0.513426413371684d0     0.245857834274784d0     0.495987838734757d0
O1       0.999193210102601d0     0.995082024067077d0     0.581249567120649d0
O1       0.500710297847751d0     0.995732401225002d0     0.553689867780061d0
O1       0.688815549937824d0     0.249705019547979d0     0.638351339784330d0
O1       0.310130673974914d0     0.249853251483902d0     0.637781555779985d0
Ti1      0.500279457443864d0     0.497643395129714d0     0.624178185768438d0
Ti1      0.999148700065485d0     0.250408112926003d0     0.628579290853566d0
O1       0.500093721748991d0     0.000084921243389d0     0.186906639369252d0
O1       0.999566576602803d0     0.001443614029238d0     0.682775899376654d0
O1       0.198268504441574d0     0.250236248865719d0     0.238667392858710d0
O1       0.801993766892314d0     0.249987153755059d0     0.238669098461250d0
Ti1      0.000123603383822d0     0.999897385958536d0     0.238512187198856d0
Ti1      0.500142521004230d0     0.750038178055688d0     0.238522014307695d0
O1       0.000095322930372d0     0.500084774873452d0     0.317452257936818d0
O1       0.500112315057126d0     0.500084209992886d0     0.290342007718641d0
O1       0.698270105622955d0     0.750236102495782d0     0.369213011426276d0
O1       0.301995368073695d0     0.749987007385122d0     0.369214717028816d0
Ti1      0.500001644927041d0     0.985370751416071d0     0.364779031055315d0
Ti1      0.000183276761494d0     0.748948988039575d0     0.368476322807288d0
O1       0.500183040768022d0     0.496760719477108d0     0.450391627066344d0
O1       0.001460782485842d0     0.499964783615161d0     0.422656139091726d0
O1       0.195785501875116d0     0.746265954129990d0     0.501940584092696d0
O1       0.802088859447712d0     0.747475015263920d0     0.501324478513545d0
Ti1      0.009585250267548d0     0.992028799881863d0     0.498952103471236d0
Ti1      0.513655527352154d0     0.745471925423921d0     0.496387393810792d0
O1       0.998739918557471d0     0.492990258306704d0     0.582191739646158d0
O1       0.500983784912265d0     0.497514263493739d0     0.552757445129471d0
O1       0.688735894828942d0     0.745693160380401d0     0.639944393639507d0
O1       0.310453604720085d0     0.745895780764106d0     0.639550439188313d0
Ti1      0.498997738016529d0     0.997406755517210d0     0.625141735754562d0
Ti1      0.999423308362349d0     0.778232883839565d0     0.638860434719999d0
O1       0.500093721748991d0     0.500084921243389d0     0.186906639369252d0
O1       0.198268504441574d0     0.750236248865719d0     0.238667392858710d0
O1       0.801993766892315d0     0.749987153755059d0     0.238669098461250d0
N1       0.012445963470995d0     0.445131182294002d0     0.740765802850655d0
N1       0.002500676707064d0     0.481952830737915d0     0.693050311363359d0
C1       0.023091415818954d0     0.636925475786978d0     0.778208232944052d0
H1       0.982991215517660d0     0.797296371283253d0     0.760337293852395d0
H1       0.925823449490638d0     0.595882340889576d0     0.811926615995906d0
H1       0.179567733268191d0     0.642279653293160d0     0.792672749129021d0
K_POINTS automatic
4 4 1  0 0 0 
