&CONTROL
  calculation='relax',
  prefix='calc',
  pseudo_dir='/storage/coda1/p-amedford6/0/shared/rich_project_chbe-medford/medford-share/data/pseudos_module/espresso/nninc/pbe/van',
  outdir='.',
  tefield=.true.,
  dipfield=.true.,
  tprnfor=.true.,
  disk_io='none',
/
&SYSTEM
  ibrav=0,
  celldm(1)=1.8897261245650618d0,
  nat=55,
  ntyp=5,
  ecutwfc=29.39945797996531d00,
  ecutrho=293.9945797996531d00,
  nbnd=211,
  occupations='smearing',
  smearing='fd',
  degauss=0.007349864494991328d00,
  input_dft='BEEF-vdW',
  edir=3,
  emaxpos=0.9860626564930446d00,
  eopreg=0.025d00,
  eamp=0.0d00,
  nosym=.false.,
  noinv=.false.,
  nosym_evc=.false.,
  no_t_rev=.false.,
/
&ELECTRONS
  diagonalization='david',
  conv_thr=7.349864494991327e-08,
  mixing_beta=0.05d00,
  electron_maxstep=1000,
  startingwfc='atomic',
/
&IONS
  ion_dynamics='ipi',
/
&CELL
  cell_dynamics='ipi',
/
CELL_PARAMETERS alat
    6.579727202290808d0     0.000000000000000d0     0.000000000000000d0
   -0.000775132442404d0     5.961596420607155d0     0.000000000000000d0
    0.000000000000000d0    -0.000000000000000d0    25.155947251439940d0
ATOMIC_SPECIES
Ti1 47.867d00 Ti.UPF
O1 15.999d00 O.UPF
C1 12.011d00 C.UPF
H1 1.008d00 H.UPF
N1 14.007d00 N.UPF
ATOMIC_POSITIONS {crystal}
Ti1      0.000123603383822d0     0.499897385958537d0     0.238512187198856d0
Ti1      0.500142521004230d0     0.250038178055688d0     0.238522014307695d0
O1       0.000095322930372d0     0.000084774873452d0     0.317452257936818d0
O1       0.500112315057126d0     0.000084209992886d0     0.290342007718641d0
O1       0.698270105622955d0     0.250236102495782d0     0.369213011426276d0
O1       0.301995368073695d0     0.249987007385122d0     0.369214717028816d0
Ti1      0.499986346248306d0     0.493190214195698d0     0.363961468206585d0
Ti1      0.997004671090002d0     0.251864534028537d0     0.368303338671770d0
O1       0.498656956365404d0     0.997776558960603d0     0.451769516054083d0
O1       0.999719432340272d0     0.999576875933806d0     0.421644306950644d0
O1       0.195274039879798d0     0.248430954399455d0     0.502874380530637d0
O1       0.803128898430814d0     0.247909273779210d0     0.503035467164197d0
Ti1      0.998104699617828d0     0.499043319910391d0     0.498572805386130d0
Ti1      0.497535075933613d0     0.247816878225657d0     0.497065338715862d0
O1       0.001601712983120d0     0.995295899725331d0     0.583812258674636d0
O1       0.498385855238752d0     0.996802800538184d0     0.556214550423454d0
O1       0.693060795065460d0     0.248290872681988d0     0.642743522090103d0
O1       0.310430457718702d0     0.249820665266421d0     0.643417980911635d0
Ti1      0.503018370819448d0     0.494734053348819d0     0.625160004994372d0
Ti1      0.000438453476608d0     0.220333801832025d0     0.635707222150212d0
O1       0.500093721748991d0     0.000084921243389d0     0.186906639369252d0
O1       0.999942769982444d0     0.995880959034894d0     0.684411803738513d0
O1       0.198268504441574d0     0.250236248865719d0     0.238667392858710d0
O1       0.801993766892314d0     0.249987153755059d0     0.238669098461250d0
Ti1      0.000123603383822d0     0.999897385958537d0     0.238512187198856d0
Ti1      0.500142521004230d0     0.750038178055688d0     0.238522014307695d0
O1       0.000095322930372d0     0.500084774873452d0     0.317452257936818d0
O1       0.500112315057126d0     0.500084209992886d0     0.290342007718641d0
O1       0.698270105622955d0     0.750236102495782d0     0.369213011426276d0
O1       0.301995368073695d0     0.749987007385122d0     0.369214717028816d0
Ti1      0.494468817865203d0     0.993477390793087d0     0.363922882974967d0
Ti1      0.995355269031199d0     0.749690318967835d0     0.368577645489542d0
O1       0.498943314907969d0     0.497772072268899d0     0.451448100011604d0
O1       0.999345541412703d0     0.499562298815240d0     0.422449684860011d0
O1       0.195413414447843d0     0.747790852289838d0     0.502948066478920d0
O1       0.803173032673291d0     0.748096085055586d0     0.502919162649029d0
Ti1      0.998599737424473d0     0.999367359246352d0     0.496301975047023d0
Ti1      0.497569662411881d0     0.747287951443230d0     0.497145052346482d0
O1       0.000797689303811d0     0.497483127913844d0     0.590957272204062d0
O1       0.499687250938671d0     0.497079269047630d0     0.554248232812171d0
O1       0.693154983445517d0     0.742747120219816d0     0.642647552724030d0
O1       0.310423013962588d0     0.740511545348331d0     0.643756003580425d0
Ti1      0.498460408938573d0     0.995049060839560d0     0.627401263019724d0
Ti1      0.996418183794251d0     0.758703437775176d0     0.631708857436346d0
O1       0.500093721748991d0     0.500084921243389d0     0.186906639369252d0
O1       0.198268504441574d0     0.750236248865719d0     0.238667392858710d0
O1       0.801993766892315d0     0.749987153755059d0     0.238669098461250d0
C1       0.897315628246613d0     0.496207693771851d0     0.752101062907561d0
O1       0.019384534887392d0     0.497675670893181d0     0.703857811374786d0
H1       0.837450654376327d0     0.664228797990587d0     0.758800198887622d0
H1       0.162420275553265d0     0.517303592975013d0     0.712708749822928d0
H1       0.775693583244947d0     0.376034685617676d0     0.746016780501773d0
H1       0.992194511361423d0     0.442603774035354d0     0.785218673616837d0
N1       0.416477880945122d0     0.032181220083103d0     0.781149434466510d0
N1       0.350314941857362d0     0.863376131973302d0     0.775848036022220d0
K_POINTS automatic
4 4 1  0 0 0 
