&CONTROL
  calculation='relax',
  prefix='calc',
  pseudo_dir='/storage/coda1/p-amedford6/0/shared/rich_project_chbe-medford/medford-share/data/pseudos_module/espresso/nninc/pbe/van',
  outdir='.',
  tefield=.true.,
  dipfield=.true.,
  tprnfor=.true.,
  disk_io='none',
/
&SYSTEM
  ibrav=0,
  celldm(1)=1.8897261245650618d0,
  nat=54,
  ntyp=5,
  ecutwfc=29.39945797996531d00,
  ecutrho=293.9945797996531d00,
  nbnd=208,
  occupations='smearing',
  smearing='fd',
  degauss=0.007349864494991328d00,
  input_dft='BEEF-vdW',
  edir=3,
  emaxpos=0.9773028026953055d00,
  eopreg=0.025d00,
  eamp=0.0d00,
  nosym=.false.,
  noinv=.false.,
  nosym_evc=.false.,
  no_t_rev=.false.,
/
&ELECTRONS
  diagonalization='david',
  conv_thr=7.349864494991327e-08,
  mixing_beta=0.05d00,
  electron_maxstep=1000,
  startingpot='file',
  startingwfc='atomic',
/
&IONS
  ion_dynamics='ipi',
/
&CELL
  cell_dynamics='ipi',
/
CELL_PARAMETERS alat
    6.579727202290808d0     0.000000000000000d0     0.000000000000000d0
   -0.000775132442404d0     5.961596420607155d0     0.000000000000000d0
    0.000000000000000d0    -0.000000000000000d0    25.155947251439940d0
ATOMIC_SPECIES
Ti1 47.867d00 Ti.UPF
O1 15.999d00 O.UPF
N1 14.007d00 N.UPF
C1 12.011d00 C.UPF
H1 1.008d00 H.UPF
ATOMIC_POSITIONS {crystal}
Ti1      0.000123603383822d0     0.499897385958536d0     0.238512187198856d0
Ti1      0.500142521004230d0     0.250038178055688d0     0.238522014307695d0
O1       0.000095322930372d0     0.000084774873452d0     0.317452257936818d0
O1       0.500112315057126d0     0.000084209992886d0     0.290342007718641d0
O1       0.698270105622955d0     0.250236102495782d0     0.369213011426276d0
O1       0.301995368073695d0     0.249987007385122d0     0.369214717028816d0
Ti1      0.500198167309398d0     0.485761668506182d0     0.364758343030283d0
Ti1      0.000261424674789d0     0.248709163236136d0     0.368424970923767d0
O1       0.501910170957421d0     0.002627661903940d0     0.450638919497280d0
O1       0.001882992193933d0     0.999479849154423d0     0.422099495650131d0
O1       0.200690614034921d0     0.251978122553162d0     0.501714694572638d0
O1       0.806894143019049d0     0.250490299788913d0     0.501845911107549d0
Ti1      0.992782680842599d0     0.495742473792122d0     0.500892676614243d0
Ti1      0.488857574268631d0     0.250936077891006d0     0.496883353501640d0
O1       0.003018890783676d0     0.004724106821006d0     0.582616443893492d0
O1       0.503290147120220d0     0.003605677568998d0     0.554389785330688d0
O1       0.695628284775230d0     0.261751129843981d0     0.636712563559956d0
O1       0.312800917789909d0     0.262161447525661d0     0.636288404442436d0
Ti1      0.504345274861729d0     0.507702199736079d0     0.623470014028426d0
Ti1      0.005707777978231d0     0.261909971230292d0     0.628467157854612d0
O1       0.500093721748991d0     0.000084921243389d0     0.186906639369252d0
O1       0.006339703596940d0     0.004332294218974d0     0.685325971294263d0
O1       0.198268504441574d0     0.250236248865719d0     0.238667392858710d0
O1       0.801993766892314d0     0.249987153755059d0     0.238669098461250d0
Ti1      0.000123603383822d0     0.999897385958536d0     0.238512187198856d0
Ti1      0.500142521004230d0     0.750038178055688d0     0.238522014307695d0
O1       0.000095322930372d0     0.500084774873452d0     0.317452257936818d0
O1       0.500112315057126d0     0.500084209992886d0     0.290342007718641d0
O1       0.698270105622955d0     0.750236102495782d0     0.369213011426276d0
O1       0.301995368073695d0     0.749987007385122d0     0.369214717028816d0
Ti1      0.500001644927041d0     0.985370751416071d0     0.364779031055315d0
Ti1      0.000183276761494d0     0.748948988039575d0     0.368476322807288d0
O1       0.501183166795775d0     0.502176518319962d0     0.450702237581952d0
O1       0.001460782485842d0     0.499964783615161d0     0.422656139091726d0
O1       0.199841152885197d0     0.753633391516328d0     0.501820111565908d0
O1       0.807092284916383d0     0.751789078885127d0     0.502041845247637d0
Ti1      0.993063508249925d0     0.994460246053782d0     0.498899844579946d0
Ti1      0.488634519106763d0     0.752904413341211d0     0.496571937877459d0
O1       0.003076700770992d0     0.498342085596022d0     0.582278360171611d0
O1       0.503812746450095d0     0.505585347455196d0     0.552223848072236d0
O1       0.694467045253770d0     0.753705429370028d0     0.639179662707675d0
O1       0.313938721029514d0     0.752747281772879d0     0.638671577360553d0
Ti1      0.506582737599668d0     0.009409789115254d0     0.627334939052206d0
Ti1      0.005394235758943d0     0.785490535538967d0     0.639548923745443d0
O1       0.500093721748991d0     0.500084921243389d0     0.186906639369252d0
O1       0.198268504441574d0     0.750236248865719d0     0.238667392858710d0
O1       0.801993766892315d0     0.749987153755059d0     0.238669098461250d0
N1       0.005529197081809d0     0.498354530916164d0     0.691424577405539d0
C1       0.007468506278291d0     0.478796882474783d0     0.741150982161664d0
H1       0.008450535252106d0     0.625600458457325d0     0.767698966021358d0
H1       0.008405885173657d0     0.313768792304223d0     0.760503928664779d0
O1       0.498456048089407d0     0.026192081970017d0     0.722682598281176d0
H1       0.612615968973249d0     0.936139638757239d0     0.734599711050555d0
H1       0.374956117376325d0     0.945147871911321d0     0.732275910011679d0
K_POINTS automatic
4 4 1  0 0 0 
