&CONTROL
  calculation='relax',
  prefix='calc',
  pseudo_dir='/storage/coda1/p-amedford6/0/shared/rich_project_chbe-medford/medford-share/data/pseudos_module/espresso/nninc/pbe/van',
  outdir='.',
  tefield=.true.,
  dipfield=.true.,
  tprnfor=.true.,
  disk_io='none',
/
&SYSTEM
  ibrav=0,
  celldm(1)=1.8897261245650618d0,
  nat=52,
  ntyp=4,
  ecutwfc=29.39945797996531d00,
  ecutrho=293.9945797996531d00,
  nbnd=205,
  occupations='smearing',
  smearing='fd',
  degauss=0.007349864494991328d00,
  input_dft='BEEF-vdW',
  edir=3,
  emaxpos=0.9617648830485019d00,
  eopreg=0.025d00,
  eamp=0.0d00,
  nosym=.false.,
  noinv=.false.,
  nosym_evc=.false.,
  no_t_rev=.false.,
/
&ELECTRONS
  diagonalization='david',
  conv_thr=7.349864494991327e-08,
  mixing_beta=0.05d00,
  electron_maxstep=1000,
  startingpot='file',
  startingwfc='atomic',
/
&IONS
  ion_dynamics='ipi',
/
&CELL
  cell_dynamics='ipi',
/
CELL_PARAMETERS alat
    6.579727202290808d0     0.000000000000000d0     0.000000000000000d0
   -0.000775132442404d0     5.961596420607155d0     0.000000000000000d0
    0.000000000000000d0    -0.000000000000000d0    25.155947251439940d0
ATOMIC_SPECIES
O1 15.999d00 O.UPF
Ti1 47.867d00 Ti.UPF
H1 1.008d00 H.UPF
C1 12.011d00 C.UPF
ATOMIC_POSITIONS {crystal}
O1       0.500093721748991d0     0.000084921243389d0     0.186906639369252d0
O1       0.500093721748991d0     0.500084921243389d0     0.186906639369252d0
Ti1      0.000123603383822d0     0.499897385958537d0     0.238512187198856d0
Ti1      0.000123603383822d0     0.999897385958537d0     0.238512187198856d0
Ti1      0.500142521004230d0     0.250038178055688d0     0.238522014307695d0
Ti1      0.500142521004230d0     0.750038178055688d0     0.238522014307695d0
O1       0.198268504441574d0     0.250236248865719d0     0.238667392858710d0
O1       0.198268504441574d0     0.750236248865719d0     0.238667392858710d0
O1       0.801993766892314d0     0.249987153755059d0     0.238669098461250d0
O1       0.801993766892315d0     0.749987153755059d0     0.238669098461250d0
O1       0.500112315057126d0     0.000084209992886d0     0.290342007718641d0
O1       0.500112315057126d0     0.500084209992886d0     0.290342007718641d0
O1       0.000095322930372d0     0.000084774873452d0     0.317452257936818d0
O1       0.000095322930372d0     0.500084774873452d0     0.317452257936818d0
Ti1      0.504823758659347d0     0.993566355266307d0     0.364858221496160d0
Ti1      0.506535936618328d0     0.492781864267978d0     0.364319787737817d0
Ti1      0.008007012946700d0     0.248063086520695d0     0.368128855631953d0
Ti1      0.007439883757648d0     0.739824036966116d0     0.370115127502932d0
O1       0.698270105622955d0     0.250236102495782d0     0.369213011426276d0
O1       0.698270105622955d0     0.750236102495782d0     0.369213011426276d0
O1       0.301995368073695d0     0.249987007385122d0     0.369214717028816d0
O1       0.301995368073695d0     0.749987007385122d0     0.369214717028816d0
O1       0.998718294756571d0     0.000297873923985d0     0.420741620903642d0
O1       0.000089972133187d0     0.501068384115393d0     0.421149352960237d0
O1       0.489693789210458d0     0.502724429977843d0     0.450705224625198d0
O1       0.489983865475014d0     0.000908659225431d0     0.450504861457200d0
Ti1      0.992735167353260d0     0.005529089984923d0     0.495045247529948d0
Ti1      0.485077253588801d0     0.273714743737432d0     0.501452968286223d0
Ti1      0.484051429621351d0     0.761889598311330d0     0.494818270450017d0
Ti1      0.979573578926570d0     0.504931473340879d0     0.503207015337015d0
O1       0.797024393193195d0     0.253702909971148d0     0.500050192275673d0
O1       0.796508648589526d0     0.748412088161925d0     0.500062768346013d0
O1       0.185396925716894d0     0.247087143272777d0     0.503530581930327d0
O1       0.185363640307351d0     0.754483003836941d0     0.503538482759645d0
O1       0.487431754778233d0     0.492183417312583d0     0.554126100789379d0
O1       0.508355243733323d0     0.998275461947912d0     0.552586040498555d0
O1       0.961674742591726d0     0.998720481296283d0     0.581851835840353d0
O1       0.971422752344065d0     0.498438191052678d0     0.586245382518318d0
Ti1      0.475160308347657d0     0.494437164207107d0     0.635049616961361d0
Ti1      0.486260548896573d0     0.994576477149533d0     0.623100187951691d0
Ti1      0.984020391711519d0     0.226432239052263d0     0.632370459914461d0
Ti1      0.983742799874387d0     0.765841353665761d0     0.630866586379403d0
O1       0.283946880699296d0     0.764971513739774d0     0.628707830751881d0
O1       0.284027243856315d0     0.228438089864136d0     0.629658445726590d0
O1       0.668885233122281d0     0.254835876022807d0     0.645143799694463d0
O1       0.668483875336174d0     0.739174436376621d0     0.644552945686967d0
O1       0.985431196175188d0     0.996515003650451d0     0.681474750346686d0
O1       0.073441911988517d0     0.499354860436476d0     0.695333532237032d0
H1       0.988349262146900d0     0.505660656327758d0     0.726871424155922d0
C1       0.297260495041699d0     0.499956924114187d0     0.711948327509743d0
H1       0.315571244786811d0     0.350464293937379d0     0.736623126727751d0
H1       0.316216666287103d0     0.651958960441314d0     0.736102100608822d0
K_POINTS automatic
4 4 1  0 0 0 
