&CONTROL
  calculation='relax',
  prefix='calc',
  pseudo_dir='/storage/coda1/p-amedford6/0/shared/rich_project_chbe-medford/medford-share/data/pseudos_module/espresso/nninc/pbe/van',
  outdir='.',
  tefield=.true.,
  dipfield=.true.,
  tprnfor=.true.,
  disk_io='none',
/
&SYSTEM
  ibrav=0,
  celldm(1)=1.8897261245650618d0,
  nat=54,
  ntyp=5,
  ecutwfc=29.39945797996531d00,
  ecutrho=293.9945797996531d00,
  nbnd=210,
  occupations='smearing',
  smearing='fd',
  degauss=0.007349864494991328d00,
  input_dft='BEEF-vdW',
  edir=3,
  emaxpos=0.04275298031842634d00,
  eopreg=0.025d00,
  eamp=0.0d00,
  nosym=.false.,
  noinv=.false.,
  nosym_evc=.false.,
  no_t_rev=.false.,
/
&ELECTRONS
  diagonalization='david',
  conv_thr=7.349864494991327e-08,
  mixing_beta=0.05d00,
  electron_maxstep=1000,
  startingwfc='atomic',
/
&IONS
  ion_dynamics='ipi',
/
&CELL
  cell_dynamics='ipi',
/
CELL_PARAMETERS alat
    6.579727202290808d0     0.000000000000000d0     0.000000000000000d0
   -0.000775132442404d0     5.961596420607155d0     0.000000000000000d0
    0.000000000000000d0    -0.000000000000000d0    25.155947251439940d0
ATOMIC_SPECIES
Ti1 47.867d00 Ti.UPF
O1 15.999d00 O.UPF
C1 12.011d00 C.UPF
H1 1.008d00 H.UPF
N1 14.007d00 N.UPF
ATOMIC_POSITIONS {crystal}
Ti1      0.000123603383822d0     0.499897385958537d0     0.238512187198856d0
Ti1      0.500142521004230d0     0.250038178055688d0     0.238522014307695d0
O1       0.000095322930372d0     0.000084774873452d0     0.317452257936818d0
O1       0.500112315057126d0     0.000084209992886d0     0.290342007718641d0
O1       0.698270105622955d0     0.250236102495782d0     0.369213011426276d0
O1       0.301995368073695d0     0.249987007385122d0     0.369214717028816d0
Ti1      0.504725756142715d0     0.509960158734899d0     0.363881492969138d0
Ti1      0.004364724842600d0     0.265308545732636d0     0.371017702355027d0
O1       0.504275615586001d0     0.002506654522949d0     0.448992900318717d0
O1       0.000911484354193d0     0.001639620559688d0     0.420477873033646d0
O1       0.200807591357172d0     0.251426546603647d0     0.499916549915568d0
O1       0.808202678243879d0     0.252706310938048d0     0.500433898486679d0
Ti1      0.006762635059875d0     0.507089977354557d0     0.504361052371827d0
Ti1      0.507967677122998d0     0.253496049918907d0     0.494321748605872d0
O1       0.006542620853682d0     0.001307786562432d0     0.581149376137634d0
O1       0.506966902404150d0     0.001946768757740d0     0.551433460870769d0
O1       0.698994540191645d0     0.252330396195151d0     0.637045009157480d0
O1       0.320708114415048d0     0.251626841758006d0     0.636757729910993d0
Ti1      0.506163419300837d0     0.501599413884632d0     0.622417169204378d0
Ti1      0.008362901156294d0     0.229230940456304d0     0.636706540754137d0
O1       0.500093721748991d0     0.000084921243389d0     0.186906639369252d0
O1       0.010357882529755d0     0.999321559279387d0     0.681846984329770d0
O1       0.198268504441574d0     0.250236248865719d0     0.238667392858710d0
O1       0.801993766892314d0     0.249987153755059d0     0.238669098461250d0
Ti1      0.000123603383822d0     0.999897385958537d0     0.238512187198856d0
Ti1      0.500142521004230d0     0.750038178055688d0     0.238522014307695d0
O1       0.000095322930372d0     0.500084774873452d0     0.317452257936818d0
O1       0.500112315057126d0     0.500084209992886d0     0.290342007718641d0
O1       0.698270105622955d0     0.750236102495782d0     0.369213011426276d0
O1       0.301995368073695d0     0.749987007385122d0     0.369214717028816d0
Ti1      0.502523444096940d0     0.010210535148514d0     0.363779933010418d0
Ti1      0.004992880695595d0     0.759030483057930d0     0.368679730048722d0
O1       0.503843595269066d0     0.502094969004816d0     0.449076516498948d0
O1       0.001676330733458d0     0.501906977990250d0     0.419806661418319d0
O1       0.201186874951458d0     0.753227231797636d0     0.499553820689773d0
O1       0.807708245649116d0     0.751354392463361d0     0.500155529214912d0
Ti1      0.006799646623751d0     0.007015987245554d0     0.497441514698837d0
Ti1      0.507857610208298d0     0.753489237952499d0     0.494245845433660d0
O1       0.011473813217483d0     0.508669858489727d0     0.581091225780837d0
O1       0.504955495703720d0     0.501923708310710d0     0.551160659556857d0
O1       0.698916923624038d0     0.750110225636546d0     0.636611831934347d0
O1       0.321799849008270d0     0.751163477577072d0     0.636604019324150d0
Ti1      0.509688363468521d0     0.001613318727939d0     0.622683038852901d0
Ti1      0.007205874268352d0     0.755931598900741d0     0.631066745900717d0
O1       0.500093721748991d0     0.500084921243389d0     0.186906639369252d0
O1       0.198268504441574d0     0.750236248865719d0     0.238667392858710d0
O1       0.801993766892315d0     0.749987153755059d0     0.238669098461250d0
C1       0.928174623816481d0     0.509033310174606d0     0.737372445356928d0
O1       0.007283460176483d0     0.502411010504379d0     0.684966982592995d0
H1       0.763890596944527d0     0.480263338260541d0     0.736750962024896d0
H1       0.998944704547289d0     0.378319963500849d0     0.761548140411747d0
H1       0.957477269938386d0     0.673310391012536d0     0.754883188498156d0
N1       0.927433171662381d0     0.514318781645767d0     0.898599321267600d0
N1       0.819060943695166d0     0.527001364948749d0     0.865109456152927d0
K_POINTS automatic
4 4 1  0 0 0 
