&CONTROL
  calculation='relax',
  prefix='calc',
  pseudo_dir='/storage/coda1/p-amedford6/0/shared/rich_project_chbe-medford/medford-share/data/pseudos_module/espresso/nninc/pbe/van',
  outdir='.',
  tefield=.true.,
  dipfield=.true.,
  tprnfor=.true.,
  disk_io='none',
/
&SYSTEM
  ibrav=0,
  celldm(1)=1.8897261245650618d0,
  nat=57,
  ntyp=4,
  ecutwfc=29.39945797996531d00,
  ecutrho=293.9945797996531d00,
  nbnd=229,
  occupations='smearing',
  smearing='fd',
  degauss=0.007349864494991328d00,
  input_dft='BEEF-vdW',
  edir=3,
  emaxpos=0.05397594198546085d00,
  eopreg=0.025d00,
  eamp=0.0d00,
  nosym=.false.,
  noinv=.false.,
  nosym_evc=.false.,
  no_t_rev=.false.,
/
&ELECTRONS
  diagonalization='david',
  conv_thr=7.349864494991327e-08,
  mixing_beta=0.05d00,
  electron_maxstep=1000,
  startingpot='file',
  startingwfc='atomic',
/
&IONS
  ion_dynamics='ipi',
/
&CELL
  cell_dynamics='ipi',
/
CELL_PARAMETERS alat
    6.579727202290808d0     0.000000000000000d0     0.000000000000000d0
   -0.001162698663605d0     8.942394630910734d0     0.000000000000000d0
    0.000000000000000d0    -0.000000000000000d0    25.155947251439940d0
ATOMIC_SPECIES
O1 15.999d00 O.UPF
Ti1 47.867d00 Ti.UPF
H1 1.008d00 H.UPF
N1 14.007d00 N.UPF
ATOMIC_POSITIONS {crystal}
O1       0.000111781329999d0     0.000056172521910d0     0.421099706309416d0
O1       0.503999237171481d0     0.999287254382506d0     0.554836357294954d0
O1       0.999615622671820d0     0.014785999045654d0     0.690699517398004d0
O1       0.000095322930372d0     0.000056516582301d0     0.317452257936818d0
O1       0.499504772520360d0     0.999687292191175d0     0.445414038226572d0
O1       0.996009809378260d0     0.000669946321856d0     0.581590374941518d0
O1       0.301995368073695d0     0.166658004923414d0     0.369214717028816d0
O1       0.796937657500474d0     0.180845981512656d0     0.500872209545557d0
O1       0.298860706067716d0     0.173541365748265d0     0.640952367317742d0
Ti1      0.000141987277103d0     0.166692151230444d0     0.369279712898471d0
Ti1      0.499956055819001d0     0.152023625765304d0     0.498315692039300d0
Ti1      0.002746936740168d0     0.153979267697498d0     0.625861586712118d0
O1       0.698270105622955d0     0.166824068330521d0     0.369213011426276d0
O1       0.203474562694345d0     0.181685188535012d0     0.501807690072570d0
O1       0.697776678529120d0     0.174303498035123d0     0.643143566658831d0
Ti1      0.500123069656695d0     0.333264956499010d0     0.369269885789632d0
Ti1      0.999601554772264d0     0.318443087570898d0     0.494333415724500d0
Ti1      0.499405560881636d0     0.335524885720975d0     0.627304256723970d0
O1       0.000111781329999d0     0.333389505855244d0     0.421099706309416d0
O1       0.502161899365163d0     0.334106091800492d0     0.555346428140815d0
O1       0.000095322930372d0     0.333389849915635d0     0.317452257936818d0
O1       0.499310041329464d0     0.332545227781859d0     0.445474854503111d0
O1       0.993941160091497d0     0.337354628662126d0     0.588869969091397d0
O1       0.301995368073695d0     0.499991338256748d0     0.369214717028816d0
O1       0.796895567563510d0     0.512103221291695d0     0.501026022249843d0
O1       0.295828993207653d0     0.498723831601704d0     0.640860450630693d0
Ti1      0.000141987277103d0     0.500025484563778d0     0.369279712898471d0
Ti1      0.498747443388466d0     0.484292767880998d0     0.498434303171758d0
Ti1      0.996255007238877d0     0.521330522804881d0     0.625264001079917d0
O1       0.698270105622955d0     0.500157401663855d0     0.369213011426276d0
O1       0.201542360893283d0     0.512887551021214d0     0.501733284490423d0
O1       0.696159741196573d0     0.501212686757482d0     0.643507424049610d0
Ti1      0.500123069656695d0     0.666598289832344d0     0.369269885789632d0
Ti1      0.998265511329742d0     0.651451398277491d0     0.494594987600594d0
Ti1      0.493215302550073d0     0.670042779457021d0     0.626850653926757d0
O1       0.000111781329999d0     0.666722839188577d0     0.421099706309416d0
O1       0.500565235984501d0     0.667533608722805d0     0.555136870907742d0
O1       0.997176891963762d0     0.660038227947663d0     0.690835572330383d0
O1       0.000095322930372d0     0.666723183248968d0     0.317452257936818d0
O1       0.499214081437807d0     0.664865833608036d0     0.445446082326903d0
O1       0.994394993986014d0     0.678398295365448d0     0.581557865067515d0
O1       0.301995368073695d0     0.833324671590081d0     0.369214717028816d0
O1       0.796480502536910d0     0.845128209973218d0     0.499577707631536d0
O1       0.297669904733849d0     0.841071390433705d0     0.639183062060238d0
Ti1      0.000141987277103d0     0.833358817897111d0     0.369279712898471d0
Ti1      0.499051240343572d0     0.818039618442198d0     0.497945262264075d0
Ti1      0.001208007706226d0     0.836035136501101d0     0.639055648837741d0
O1       0.698270105622955d0     0.833490734997188d0     0.369213011426276d0
O1       0.203352142657807d0     0.846664569920746d0     0.500389391028320d0
O1       0.692824954658876d0     0.834995117388486d0     0.643721962950978d0
Ti1      0.500123069656695d0     0.999931623165677d0     0.369269885789632d0
Ti1      0.998736395344457d0     0.982960874628043d0     0.494831460363499d0
Ti1      0.502701493144726d0     0.000601619373785d0     0.626610028118008d0
H1       0.876772180288714d0     0.653898079846180d0     0.712862758800885d0
H1       0.881794032830962d0     0.025273134389918d0     0.713403612206865d0
N1       0.957014742831011d0     0.424028197766122d0     0.790499626034103d0
N1       0.964844841092415d0     0.331554209264694d0     0.761465494002275d0
K_POINTS automatic
4 4 1  0 0 0 
