&CONTROL
  calculation='relax',
  prefix='calc',
  pseudo_dir='/storage/coda1/p-amedford6/0/shared/rich_project_chbe-medford/medford-share/data/pseudos_module/espresso/nninc/pbe/van',
  outdir='.',
  tefield=.true.,
  dipfield=.true.,
  tprnfor=.true.,
  disk_io='none',
/
&SYSTEM
  ibrav=0,
  celldm(1)=1.8897261245650618d0,
  nat=56,
  ntyp=5,
  ecutwfc=29.39945797996531d00,
  ecutrho=293.9945797996531d00,
  nbnd=211,
  occupations='smearing',
  smearing='fd',
  degauss=0.007349864494991328d00,
  input_dft='BEEF-vdW',
  edir=3,
  emaxpos=0.9900619197804156d00,
  eopreg=0.025d00,
  eamp=0.0d00,
  nosym=.false.,
  noinv=.false.,
  nosym_evc=.false.,
  no_t_rev=.false.,
/
&ELECTRONS
  diagonalization='david',
  conv_thr=7.349864494991327e-08,
  mixing_beta=0.05d00,
  electron_maxstep=1000,
  startingwfc='atomic',
/
&IONS
  ion_dynamics='ipi',
/
&CELL
  cell_dynamics='ipi',
/
CELL_PARAMETERS alat
    6.579727202290808d0     0.000000000000000d0     0.000000000000000d0
   -0.000775132442404d0     5.961596420607155d0     0.000000000000000d0
    0.000000000000000d0    -0.000000000000000d0    25.155947251439940d0
ATOMIC_SPECIES
Ti1 47.867d00 Ti.UPF
O1 15.999d00 O.UPF
N1 14.007d00 N.UPF
C1 12.011d00 C.UPF
H1 1.008d00 H.UPF
ATOMIC_POSITIONS {crystal}
Ti1      0.000123603383822d0     0.499897385958536d0     0.238512187198856d0
Ti1      0.500142521004230d0     0.250038178055688d0     0.238522014307695d0
O1       0.000095322930372d0     0.000084774873452d0     0.317452257936818d0
O1       0.500112315057126d0     0.000084209992886d0     0.290342007718641d0
O1       0.698270105622955d0     0.250236102495782d0     0.369213011426276d0
O1       0.301995368073695d0     0.249987007385122d0     0.369214717028816d0
Ti1      0.500198167309398d0     0.485761668506182d0     0.364758343030283d0
Ti1      0.000261424674789d0     0.248709163236136d0     0.368424970923767d0
O1       0.499147331721655d0     0.993937613260557d0     0.451428027604771d0
O1       0.001882992193933d0     0.999479849154423d0     0.422099495650131d0
O1       0.192027801099517d0     0.248157547562662d0     0.502735066409895d0
O1       0.805218387325896d0     0.250137186114549d0     0.502373189829303d0
Ti1      0.996955452483585d0     0.496258326990460d0     0.497917716913892d0
Ti1      0.500670548834700d0     0.215996315462664d0     0.505195408957344d0
O1       0.994864070668272d0     0.014231248833451d0     0.583051836129648d0
O1       0.500008091140829d0     0.011507522692637d0     0.556464431899280d0
O1       0.689233880420482d0     0.259120753809269d0     0.642661999884417d0
O1       0.302452757369650d0     0.257634913346383d0     0.643684366924029d0
Ti1      0.494495552848721d0     0.499738844356089d0     0.623658244667615d0
Ti1      0.990378978575985d0     0.238089982895033d0     0.637796338612592d0
O1       0.500093721748991d0     0.000084921243389d0     0.186906639369252d0
O1       0.992776647700690d0     0.980793553414719d0     0.682425120538770d0
O1       0.198268504441574d0     0.250236248865719d0     0.238667392858710d0
O1       0.801993766892314d0     0.249987153755059d0     0.238669098461250d0
Ti1      0.000123603383822d0     0.999897385958536d0     0.238512187198856d0
Ti1      0.500142521004230d0     0.750038178055688d0     0.238522014307695d0
O1       0.000095322930372d0     0.500084774873452d0     0.317452257936818d0
O1       0.500112315057126d0     0.500084209992886d0     0.290342007718641d0
O1       0.698270105622955d0     0.750236102495782d0     0.369213011426276d0
O1       0.301995368073695d0     0.749987007385122d0     0.369214717028816d0
Ti1      0.500001644927041d0     0.985370751416071d0     0.364779031055315d0
Ti1      0.000183276761494d0     0.748948988039575d0     0.368476322807288d0
O1       0.498583081602840d0     0.503849171989538d0     0.449843683860516d0
O1       0.001460782485842d0     0.499964783615161d0     0.422656139091726d0
O1       0.192018057849326d0     0.748465897059774d0     0.504341051613786d0
O1       0.805065779243048d0     0.746097123457072d0     0.503991337562124d0
Ti1      0.003841245652267d0     0.998417455837131d0     0.497024278985597d0
Ti1      0.500628955863860d0     0.733457045346527d0     0.494828881400906d0
O1       0.000242945938376d0     0.491897269700505d0     0.592457799123732d0
O1       0.495713300195603d0     0.497221054896710d0     0.553353763468692d0
O1       0.690984155371726d0     0.735779804099636d0     0.639111856846117d0
O1       0.305351225214900d0     0.746006159716854d0     0.640237329227817d0
Ti1      0.490654513444273d0     0.998536645096431d0     0.648274003085020d0
Ti1      0.994338206371753d0     0.776636017339372d0     0.628045656266916d0
O1       0.500093721748991d0     0.500084921243389d0     0.186906639369252d0
O1       0.198268504441574d0     0.750236248865719d0     0.238667392858710d0
O1       0.801993766892315d0     0.749987153755059d0     0.238669098461250d0
N1       0.990274201632979d0     0.457426418085487d0     0.722375821740316d0
C1       0.147692360840200d0     0.442041483634316d0     0.752015968741799d0
H1       0.146159130991031d0     0.498144830484752d0     0.793217200191579d0
H1       0.283027844064289d0     0.366419213079737d0     0.735894452440095d0
N1       0.810333302559035d0     0.532114691313707d0     0.744944382486991d0
H1       0.834937345659658d0     0.622272476534034d0     0.778720996260581d0
H1       0.733480684882330d0     0.628556566852910d0     0.718348612068217d0
O1       0.514844199886588d0     0.989546931581286d0     0.721940085153745d0
H1       0.613245611465005d0     0.093276667683855d0     0.736902640022692d0
K_POINTS automatic
4 4 1  0 0 0 
