&CONTROL
  calculation='relax',
  prefix='calc',
  pseudo_dir='/storage/coda1/p-amedford6/0/shared/rich_project_chbe-medford/medford-share/data/pseudos_module/espresso/nninc/pbe/van',
  outdir='.',
  tefield=.true.,
  dipfield=.true.,
  tprnfor=.true.,
  disk_io='none',
/
&SYSTEM
  ibrav=0,
  celldm(1)=1.8897261245650618d0,
  nat=59,
  ntyp=4,
  ecutwfc=29.39945797996531d00,
  ecutrho=293.9945797996531d00,
  nbnd=230,
  occupations='smearing',
  smearing='fd',
  degauss=0.007349864494991328d00,
  input_dft='BEEF-vdW',
  edir=3,
  emaxpos=0.032556776577264745d00,
  eopreg=0.025d00,
  eamp=0.0d00,
  nosym=.false.,
  noinv=.false.,
  nosym_evc=.false.,
  no_t_rev=.false.,
/
&ELECTRONS
  diagonalization='david',
  conv_thr=7.349864494991327e-08,
  mixing_beta=0.05d00,
  electron_maxstep=1000,
  startingpot='file',
  startingwfc='atomic',
/
&IONS
  ion_dynamics='ipi',
/
&CELL
  cell_dynamics='ipi',
/
CELL_PARAMETERS alat
    6.579727202290808d0     0.000000000000000d0     0.000000000000000d0
   -0.001162698663605d0     8.942394630910734d0     0.000000000000000d0
    0.000000000000000d0    -0.000000000000000d0    25.155947251439940d0
ATOMIC_SPECIES
O1 15.999d00 O.UPF
Ti1 47.867d00 Ti.UPF
N1 14.007d00 N.UPF
H1 1.008d00 H.UPF
ATOMIC_POSITIONS {crystal}
O1       0.000111781329999d0     0.000056172521910d0     0.421099706309416d0
O1       0.500086087706009d0     0.995512274906940d0     0.548182403724241d0
O1       0.000000137787585d0     0.001784078688032d0     0.679144859970502d0
O1       0.000095322930372d0     0.000056516582301d0     0.317452257936818d0
O1       0.500081231532754d0     0.000011980239367d0     0.443103735422768d0
O1       0.999996167274599d0     0.004147647307470d0     0.574507342531014d0
O1       0.301995368073695d0     0.166658004923414d0     0.369214717028816d0
O1       0.791426781648921d0     0.177572802002609d0     0.498236762034837d0
O1       0.306283732415320d0     0.176688973674369d0     0.634067874235747d0
Ti1      0.000141987277103d0     0.166692151230444d0     0.369279712898471d0
Ti1      0.500161912235544d0     0.143493176255980d0     0.495173647316992d0
Ti1      0.999946751722810d0     0.133516349317586d0     0.628119154087323d0
O1       0.698270105622955d0     0.166824068330521d0     0.369213011426276d0
O1       0.208752688086735d0     0.177528577136368d0     0.498243099901117d0
O1       0.693606511544105d0     0.176622006143016d0     0.634089761852108d0
Ti1      0.500123069656695d0     0.333264956499010d0     0.369269885789632d0
Ti1      0.000160954876262d0     0.311987210596207d0     0.496544513574565d0
Ti1      0.499911409039444d0     0.322656097565307d0     0.622159628196646d0
O1       0.000111781329999d0     0.333389505855244d0     0.421099706309416d0
O1       0.500095959810773d0     0.327918145277952d0     0.548876908047751d0
O1       0.000095322930372d0     0.333389849915635d0     0.317452257936818d0
O1       0.500103411114310d0     0.333205038655937d0     0.443862544117345d0
O1       0.000045034551279d0     0.341278294284094d0     0.580968538406981d0
O1       0.301995368073695d0     0.499991338256748d0     0.369214717028816d0
O1       0.794109224087162d0     0.506915665118226d0     0.499087668904632d0
O1       0.308871697654579d0     0.502011419690834d0     0.636605758362367d0
Ti1      0.000141987277103d0     0.500025484563778d0     0.369279712898471d0
Ti1      0.500230743483896d0     0.481389160943632d0     0.498646172288573d0
Ti1      0.000195814756062d0     0.478727959497121d0     0.634296908400928d0
O1       0.698270105622955d0     0.500157401663855d0     0.369213011426276d0
O1       0.206082106662614d0     0.506848666664834d0     0.499091095798751d0
O1       0.691374380117693d0     0.501977208074682d0     0.636666429773583d0
Ti1      0.500123069656695d0     0.666598289832344d0     0.369269885789632d0
Ti1      0.000184183592393d0     0.643473990219473d0     0.499500722293335d0
Ti1      0.500341187104293d0     0.650319253447728d0     0.647155395226984d0
O1       0.000111781329999d0     0.666722839188577d0     0.421099706309416d0
O1       0.500106100447035d0     0.659716195712595d0     0.548210892337944d0
O1       0.000144384108712d0     0.662446387303390d0     0.682123550907244d0
O1       0.000095322930372d0     0.666723183248968d0     0.317452257936818d0
O1       0.500083598659749d0     0.662528973356247d0     0.443875912893526d0
O1       0.000130919138399d0     0.668815581611999d0     0.578643973653126d0
O1       0.301995368073695d0     0.833324671590081d0     0.369214717028816d0
O1       0.794168307883247d0     0.839272806921993d0     0.498345277786224d0
O1       0.306814248445096d0     0.846231539309681d0     0.635097777032508d0
Ti1      0.000141987277103d0     0.833358817897111d0     0.369279712898471d0
Ti1      0.500112121154569d0     0.803232731483550d0     0.500298705080952d0
Ti1      0.000194263707093d0     0.806690941550219d0     0.636760294220020d0
O1       0.698270105622955d0     0.833490734997188d0     0.369213011426276d0
O1       0.205980561764405d0     0.839233029404716d0     0.498354394345901d0
O1       0.693329420073418d0     0.846048441246279d0     0.635068473711116d0
Ti1      0.500123069656695d0     0.999931623165677d0     0.369269885789632d0
Ti1      0.000083391129371d0     0.973654134899371d0     0.496067839559454d0
Ti1      0.500196736238800d0     0.984398474761698d0     0.621980137562966d0
N1       0.500148149750173d0     0.663520191117652d0     0.722303301575923d0
H1       0.500129741236628d0     0.576820863395498d0     0.747661295217711d0
H1       0.499740329848876d0     0.760949842342453d0     0.742821924272494d0
N1       0.000102523524608d0     0.351195543724510d0     0.697739380106944d0
H1       0.000158913231520d0     0.249671510950992d0     0.715930715958271d0
H1       0.999689893544423d0     0.429269449064933d0     0.727230292002982d0
K_POINTS automatic
4 4 1  0 0 0 
