&CONTROL
  calculation='relax',
  prefix='calc',
  pseudo_dir='/storage/coda1/p-amedford6/0/shared/rich_project_chbe-medford/medford-share/data/pseudos_module/espresso/nninc/pbe/van',
  outdir='.',
  tefield=.true.,
  dipfield=.true.,
  tprnfor=.true.,
  disk_io='none',
/
&SYSTEM
  ibrav=0,
  celldm(1)=1.8897261245650618d0,
  nat=57,
  ntyp=4,
  ecutwfc=29.39945797996531d00,
  ecutrho=293.9945797996531d00,
  nbnd=227,
  occupations='smearing',
  smearing='fd',
  degauss=0.007349864494991328d00,
  input_dft='BEEF-vdW',
  edir=3,
  emaxpos=0.027057989526563908d00,
  eopreg=0.025d00,
  eamp=0.0d00,
  nosym=.false.,
  noinv=.false.,
  nosym_evc=.false.,
  no_t_rev=.false.,
/
&ELECTRONS
  diagonalization='david',
  conv_thr=7.349864494991327e-08,
  mixing_beta=0.05d00,
  electron_maxstep=1000,
  startingpot='file',
  startingwfc='atomic',
/
&IONS
  ion_dynamics='ipi',
/
&CELL
  cell_dynamics='ipi',
/
CELL_PARAMETERS alat
    6.579727202290808d0     0.000000000000000d0     0.000000000000000d0
   -0.001162698663605d0     8.942394630910734d0     0.000000000000000d0
    0.000000000000000d0    -0.000000000000000d0    25.155947251439940d0
ATOMIC_SPECIES
O1 15.999d00 O.UPF
Ti1 47.867d00 Ti.UPF
N1 14.007d00 N.UPF
H1 1.008d00 H.UPF
ATOMIC_POSITIONS {crystal}
O1       0.000111781329999d0     0.000056172521910d0     0.421099706309416d0
O1       0.500088036937411d0     0.001253110575433d0     0.552413633649907d0
O1       0.000083613921006d0     0.008626152979071d0     0.683534306942175d0
O1       0.000095322930372d0     0.000056516582301d0     0.317452257936818d0
O1       0.500133962958755d0     0.998778520882180d0     0.445001618810029d0
O1       0.000069100817618d0     0.000421880040382d0     0.579741899796604d0
O1       0.301995368073695d0     0.166658004923414d0     0.369214717028816d0
O1       0.796092712825317d0     0.180284932379274d0     0.500129861284425d0
O1       0.306844593791485d0     0.169702700897062d0     0.639690176789639d0
Ti1      0.000141987277103d0     0.166692151230444d0     0.369279712898471d0
Ti1      0.500173503255970d0     0.151342151354186d0     0.496206004190784d0
Ti1      0.999939912589763d0     0.148939153030155d0     0.624977340110874d0
O1       0.698270105622955d0     0.166824068330521d0     0.369213011426276d0
O1       0.204140030813398d0     0.180201813699882d0     0.500115534129286d0
O1       0.693290653041609d0     0.169728007059815d0     0.639705667973667d0
Ti1      0.500123069656695d0     0.333264956499010d0     0.369269885789632d0
Ti1      0.000189102262321d0     0.316856368193553d0     0.495375973294098d0
Ti1      0.499961041825885d0     0.335831391743982d0     0.624899353702342d0
O1       0.000111781329999d0     0.333389505855244d0     0.421099706309416d0
O1       0.500062492010650d0     0.331785302776155d0     0.552793408656893d0
O1       0.000095322930372d0     0.333389849915635d0     0.317452257936818d0
O1       0.500136445406666d0     0.333069191986263d0     0.445115623262875d0
O1       0.000097743176707d0     0.334415257690357d0     0.587796800131422d0
O1       0.301995368073695d0     0.499991338256748d0     0.369214717028816d0
O1       0.796810088204028d0     0.512132817135129d0     0.500533627166334d0
O1       0.302059123010572d0     0.490640312354714d0     0.639024564141802d0
Ti1      0.000141987277103d0     0.500025484563778d0     0.369279712898471d0
Ti1      0.500256139947375d0     0.484594334907570d0     0.498429178885646d0
Ti1      0.000072449793923d0     0.525769899413380d0     0.625823071051193d0
O1       0.698270105622955d0     0.500157401663855d0     0.369213011426276d0
O1       0.203520466448597d0     0.512078571537145d0     0.500521386208861d0
O1       0.698050954267717d0     0.490676717859201d0     0.639013768291537d0
Ti1      0.500123069656695d0     0.666598289832344d0     0.369269885789632d0
Ti1      0.000265219731678d0     0.649779472486252d0     0.495093922594078d0
Ti1      0.500200808204136d0     0.672747669480734d0     0.629740301012505d0
O1       0.000111781329999d0     0.666722839188577d0     0.421099706309416d0
O1       0.500132058592859d0     0.665845712456473d0     0.554661361553600d0
O1       0.000062341424518d0     0.662255812215452d0     0.683956078399941d0
O1       0.000095322930372d0     0.666723183248968d0     0.317452257936818d0
O1       0.500147133184338d0     0.664984466360175d0     0.445531686402717d0
O1       0.000126708000176d0     0.674796830959842d0     0.580527279634931d0
O1       0.301995368073695d0     0.833324671590081d0     0.369214717028816d0
O1       0.795714252193491d0     0.844867255335357d0     0.499482202776523d0
O1       0.307804843379623d0     0.836601294412491d0     0.637496934499353d0
Ti1      0.000141987277103d0     0.833358817897111d0     0.369279712898471d0
Ti1      0.500222905592235d0     0.813069506596342d0     0.498943721568120d0
Ti1      0.000142304952608d0     0.837652911194002d0     0.646457845791028d0
O1       0.698270105622955d0     0.833490734997188d0     0.369213011426276d0
O1       0.204578949538522d0     0.844791480784009d0     0.499474548241454d0
O1       0.692387821637598d0     0.836621120213391d0     0.637491487898019d0
Ti1      0.500123069656695d0     0.999931623165677d0     0.369269885789632d0
Ti1      0.000228352588082d0     0.981090660126625d0     0.494990607321955d0
Ti1      0.500044396368259d0     0.002191711642135d0     0.624227947063895d0
N1       0.500055364548996d0     0.666152258535994d0     0.722675293205784d0
H1       0.500030831230399d0     0.559798829105344d0     0.736256429916198d0
H1       0.373996717003378d0     0.717862033425989d0     0.736637124564693d0
H1       0.626083955106912d0     0.717880331575521d0     0.736663721116310d0
K_POINTS automatic
4 4 1  0 0 0 
