&CONTROL
  calculation='relax',
  prefix='calc',
  pseudo_dir='/storage/coda1/p-amedford6/0/shared/rich_project_chbe-medford/medford-share/data/pseudos_module/espresso/nninc/pbe/van',
  outdir='.',
  tefield=.true.,
  dipfield=.true.,
  tprnfor=.true.,
  disk_io='none',
/
&SYSTEM
  ibrav=0,
  celldm(1)=1.8897261245650618d0,
  nat=54,
  ntyp=5,
  ecutwfc=29.39945797996531d00,
  ecutrho=293.9945797996531d00,
  nbnd=206,
  occupations='smearing',
  smearing='fd',
  degauss=0.007349864494991328d00,
  nspin=2,
  starting_magnetization(1)=0.0d00,
  starting_magnetization(2)=0.0d00,
  starting_magnetization(3)=0.0d00,
  starting_magnetization(4)=0.0d00,
  starting_magnetization(5)=0.025d00,
  input_dft='BEEF-vdW',
  edir=3,
  emaxpos=0.9930330733818298d00,
  eopreg=0.025d00,
  eamp=0.0d00,
  nosym=.false.,
  noinv=.false.,
  nosym_evc=.false.,
  no_t_rev=.false.,
/
&ELECTRONS
  diagonalization='david',
  conv_thr=7.349864494991327e-08,
  mixing_beta=0.05d00,
  electron_maxstep=1000,
  startingpot='file',
  startingwfc='atomic',
/
&IONS
  ion_dynamics='ipi',
/
&CELL
  cell_dynamics='ipi',
/
CELL_PARAMETERS alat
    6.579727202290808d0     0.000000000000000d0     0.000000000000000d0
   -0.000775132442404d0     5.961596420607155d0     0.000000000000000d0
    0.000000000000000d0    -0.000000000000000d0    25.155947251439940d0
ATOMIC_SPECIES
Ti1 47.867d00 Ti.UPF
O1 15.999d00 O.UPF
H1 1.008d00 H.UPF
N1 14.007d00 N.UPF
C1 12.011d00 C.UPF
ATOMIC_POSITIONS {crystal}
Ti1      0.000123603383822d0     0.499897385958536d0     0.238512187198856d0
Ti1      0.500142521004230d0     0.250038178055688d0     0.238522014307695d0
O1       0.000095322930372d0     0.000084774873452d0     0.317452257936818d0
O1       0.500112315057126d0     0.000084209992886d0     0.290342007718641d0
O1       0.698270105622955d0     0.250236102495782d0     0.369213011426276d0
O1       0.301995368073695d0     0.249987007385122d0     0.369214717028816d0
Ti1      0.500198167309398d0     0.485761668506182d0     0.364758343030283d0
Ti1      0.000261424674789d0     0.248709163236136d0     0.368424970923767d0
O1       0.497958371502124d0     0.000542709142514d0     0.452261994973531d0
O1       0.001882992193933d0     0.999479849154423d0     0.422099495650131d0
O1       0.193770641062089d0     0.250464956404596d0     0.504739067188950d0
O1       0.802763519036854d0     0.249992136342672d0     0.504082062472264d0
Ti1      0.998223672644789d0     0.498728645143114d0     0.497147338545147d0
Ti1      0.498025603041952d0     0.248420072263062d0     0.498237781746032d0
O1       0.995145335075523d0     0.987451092508676d0     0.584498643765840d0
O1       0.498263729729254d0     0.998996695363277d0     0.556656916923072d0
O1       0.685347412686173d0     0.257171800110573d0     0.642634182062482d0
O1       0.303153984960645d0     0.256249172867659d0     0.641570870980743d0
Ti1      0.495112213402529d0     0.504525193458663d0     0.626466802715583d0
Ti1      0.996867700910440d0     0.220471971725746d0     0.630788084247721d0
O1       0.500093721748991d0     0.000084921243389d0     0.186906639369252d0
O1       0.993754007972892d0     0.025368144961706d0     0.685727042216630d0
O1       0.198268504441574d0     0.250236248865719d0     0.238667392858710d0
O1       0.801993766892314d0     0.249987153755059d0     0.238669098461250d0
Ti1      0.000123603383822d0     0.999897385958536d0     0.238512187198856d0
Ti1      0.500142521004230d0     0.750038178055688d0     0.238522014307695d0
O1       0.000095322930372d0     0.500084774873452d0     0.317452257936818d0
O1       0.500112315057126d0     0.500084209992886d0     0.290342007718641d0
O1       0.698270105622955d0     0.750236102495782d0     0.369213011426276d0
O1       0.301995368073695d0     0.749987007385122d0     0.369214717028816d0
Ti1      0.500001644927041d0     0.985370751416071d0     0.364779031055315d0
Ti1      0.000183276761494d0     0.748948988039575d0     0.368476322807288d0
O1       0.498570928664921d0     0.498247051262684d0     0.452017815283723d0
O1       0.001460782485842d0     0.499964783615161d0     0.422656139091726d0
O1       0.194280065193082d0     0.748229234310383d0     0.503294607957125d0
O1       0.802224692436664d0     0.748668757474825d0     0.502704196542567d0
Ti1      0.998495200893887d0     0.996877164204806d0     0.497025934716670d0
Ti1      0.498380108516069d0     0.747946491503294d0     0.497753737353329d0
O1       0.993334240929932d0     0.509676111013186d0     0.595353925378895d0
O1       0.498433169346313d0     0.503826414848594d0     0.555339110626886d0
O1       0.683756809895758d0     0.752288649232954d0     0.645799312724254d0
O1       0.302017905924653d0     0.751813620661343d0     0.644865328191406d0
Ti1      0.496470607466436d0     0.004385074509107d0     0.628073299724912d0
Ti1      0.998128892400269d0     0.759515076139738d0     0.638675606191975d0
O1       0.500093721748991d0     0.500084921243389d0     0.186906639369252d0
O1       0.198268504441574d0     0.750236248865719d0     0.238667392858710d0
O1       0.801993766892315d0     0.749987153755059d0     0.238669098461250d0
H1       0.870243142838558d0     0.689954076903722d0     0.734393268815260d0
H1       0.891339207819308d0     0.421450634763208d0     0.723867313766721d0
N1       0.968246470676832d0     0.568748973815134d0     0.721967177009278d0
C1       0.144918245473536d0     0.559368595006704d0     0.758236701155101d0
H1       0.222879466749272d0     0.720198206099139d0     0.756887047065445d0
H1       0.099901691078302d0     0.523165854077636d0     0.799159507394407d0
H1       0.248174012274163d0     0.428765360992617d0     0.744682471375051d0
K_POINTS automatic
4 4 1  0 0 0 
