&CONTROL
  calculation='relax',
  prefix='calc',
  pseudo_dir='/storage/coda1/p-amedford6/0/shared/rich_project_chbe-medford/medford-share/data/pseudos_module/espresso/nninc/pbe/van',
  outdir='.',
  tefield=.true.,
  dipfield=.true.,
  tprnfor=.true.,
  disk_io='none',
/
&SYSTEM
  ibrav=0,
  celldm(1)=1.8897261245650618d0,
  nat=50,
  ntyp=4,
  ecutwfc=73.49864494991327d00,
  ecutrho=293.9945797996531d00,
  nbnd=206,
  occupations='smearing',
  smearing='fd',
  degauss=0.007349864494991328d00,
  input_dft='BEEF-vdW',
  edir=3,
  emaxpos=0.9907485599434958d00,
  eopreg=0.025d00,
  eamp=0.0d00,
  nosym=.false.,
  noinv=.false.,
  nosym_evc=.false.,
  no_t_rev=.false.,
/
&ELECTRONS
  diagonalization='david',
  conv_thr=7.349864494991327e-08,
  mixing_beta=0.05d00,
  electron_maxstep=1000,
  startingwfc='atomic',
/
&IONS
  ion_dynamics='ipi',
/
&CELL
  cell_dynamics='ipi',
/
CELL_PARAMETERS alat
    6.579727202290808d0     0.000000000000000d0     0.000000000000000d0
   -0.000775132442404d0     5.961596420607155d0     0.000000000000000d0
    0.000000000000000d0    -0.000000000000000d0    25.155947251439940d0
ATOMIC_SPECIES
Ti1 47.867d00 Ti.UPF
O1 15.999d00 O.UPF
C1 12.011d00 C.UPF
N1 14.007d00 N.UPF
ATOMIC_POSITIONS {crystal}
Ti1      0.000123603383822d0     0.499897385958537d0     0.238512187198856d0
Ti1      0.500142521004230d0     0.250038178055688d0     0.238522014307695d0
O1       0.000095322930372d0     0.000084774873452d0     0.317452257936818d0
O1       0.500112315057126d0     0.000084209992886d0     0.290342007718641d0
O1       0.698270105622955d0     0.250236102495782d0     0.369213011426276d0
O1       0.301995368073695d0     0.249987007385122d0     0.369214717028816d0
Ti1      0.503405986395710d0     0.489709966807612d0     0.364245061524140d0
Ti1      0.004278110269408d0     0.257880887421653d0     0.372876182012466d0
O1       0.499070829011073d0     0.998033730975705d0     0.451522607684628d0
O1       0.000599013966868d0     0.000391666149807d0     0.420405198880738d0
O1       0.192081481122227d0     0.247763279384236d0     0.504445763809553d0
O1       0.800018446409245d0     0.247920528748510d0     0.503529862671701d0
Ti1      0.009320731172807d0     0.493614371171926d0     0.512421320497944d0
Ti1      0.515509863503146d0     0.246832912178229d0     0.496841228171373d0
O1       0.998606522859271d0     0.993219399335987d0     0.583024578237432d0
O1       0.496944722950698d0     0.997999139800187d0     0.553647825243448d0
O1       0.685077362431317d0     0.250192095732914d0     0.639400946971671d0
O1       0.309851581949056d0     0.249995750104491d0     0.639501231818224d0
Ti1      0.497071315315729d0     0.500162544761824d0     0.625533922429448d0
Ti1      0.996624321149506d0     0.254820810614373d0     0.643841074468147d0
O1       0.500093721748991d0     0.000084921243389d0     0.186906639369252d0
O1       0.997265925457314d0     0.001803900048164d0     0.687074145250081d0
O1       0.198268504441574d0     0.250236248865719d0     0.238667392858710d0
O1       0.801993766892314d0     0.249987153755059d0     0.238669098461250d0
Ti1      0.000123603383822d0     0.999897385958537d0     0.238512187198856d0
Ti1      0.500142521004230d0     0.750038178055688d0     0.238522014307695d0
O1       0.000095322930372d0     0.500084774873452d0     0.317452257936818d0
O1       0.500112315057126d0     0.500084209992886d0     0.290342007718641d0
O1       0.698270105622955d0     0.750236102495782d0     0.369213011426276d0
O1       0.301995368073695d0     0.749987007385122d0     0.369214717028816d0
Ti1      0.502511133271832d0     0.989371966198106d0     0.364239893659421d0
Ti1      0.004020336664601d0     0.757246207255870d0     0.373301380177316d0
O1       0.498529676708556d0     0.497366269371016d0     0.451464799282419d0
O1       0.000181718617485d0     0.500001963725942d0     0.420142035516335d0
O1       0.192053448427840d0     0.743385123556233d0     0.504035492341217d0
O1       0.800078404992287d0     0.744896880530609d0     0.503189030708720d0
Ti1      0.010502061930177d0     0.993379082750825d0     0.510805330676916d0
Ti1      0.515478931639029d0     0.747401563368579d0     0.496714962651740d0
O1       0.998428787672192d0     0.494634922781265d0     0.586420206216807d0
O1       0.497456945953425d0     0.498672315488930d0     0.553772535633691d0
O1       0.685115823528380d0     0.750351499579652d0     0.639616862997430d0
O1       0.309924798835123d0     0.750401200173377d0     0.639794943029403d0
Ti1      0.496602362798787d0     0.000437687221577d0     0.625381726629969d0
Ti1      0.996927169141247d0     0.763090950165696d0     0.644218836149229d0
O1       0.500093721748991d0     0.500084921243389d0     0.186906639369252d0
O1       0.198268504441574d0     0.750236248865719d0     0.238667392858710d0
O1       0.801993766892315d0     0.749987153755059d0     0.238669098461250d0
C1       0.997482494478236d0     0.501129900355891d0     0.698337426978444d0
N1       0.998327518779102d0     0.501165337604706d0     0.794590480517739d0
N1       0.997990611092308d0     0.502579956361159d0     0.749002257826987d0
K_POINTS automatic
4 4 1  0 0 0 
