&CONTROL
  calculation='relax',
  prefix='calc',
  pseudo_dir='/storage/coda1/p-amedford6/0/shared/rich_project_chbe-medford/medford-share/data/pseudos_module/espresso/nninc/pbe/van',
  outdir='.',
  tefield=.true.,
  dipfield=.true.,
  tprnfor=.true.,
  disk_io='none',
/
&SYSTEM
  ibrav=0,
  celldm(1)=1.8897261245650618d0,
  nat=52,
  ntyp=4,
  ecutwfc=29.39945797996531d00,
  ecutrho=293.9945797996531d00,
  nbnd=205,
  occupations='smearing',
  smearing='fd',
  degauss=0.007349864494991328d00,
  input_dft='BEEF-vdW',
  edir=3,
  emaxpos=0.9624259349197567d00,
  eopreg=0.025d00,
  eamp=0.0d00,
  nosym=.false.,
  noinv=.false.,
  nosym_evc=.false.,
  no_t_rev=.false.,
/
&ELECTRONS
  diagonalization='david',
  conv_thr=7.349864494991327e-08,
  mixing_beta=0.05d00,
  electron_maxstep=1000,
  startingpot='file',
  startingwfc='atomic',
/
&IONS
  ion_dynamics='ipi',
/
&CELL
  cell_dynamics='ipi',
/
CELL_PARAMETERS alat
    6.579727202290808d0     0.000000000000000d0     0.000000000000000d0
   -0.000775132442404d0     5.961596420607155d0     0.000000000000000d0
    0.000000000000000d0    -0.000000000000000d0    25.155947251439940d0
ATOMIC_SPECIES
Ti1 47.867d00 Ti.UPF
O1 15.999d00 O.UPF
C1 12.011d00 C.UPF
H1 1.008d00 H.UPF
ATOMIC_POSITIONS {crystal}
Ti1      0.000123603383822d0     0.499897385958537d0     0.238512187198856d0
Ti1      0.500142521004230d0     0.250038178055688d0     0.238522014307695d0
O1       0.000095322930372d0     0.000084774873452d0     0.317452257936818d0
O1       0.500112315057126d0     0.000084209992886d0     0.290342007718641d0
O1       0.698270105622955d0     0.250236102495782d0     0.369213011426276d0
O1       0.301995368073695d0     0.249987007385122d0     0.369214717028816d0
Ti1      0.499648357548231d0     0.480548295159407d0     0.364612998523101d0
Ti1      0.000022899347144d0     0.239900235602038d0     0.372753523842266d0
O1       0.498701851170107d0     0.000901193582054d0     0.451106924464181d0
O1       0.000042952805414d0     0.997961991946435d0     0.419745746535101d0
O1       0.193188790168494d0     0.252655159918077d0     0.502461387550390d0
O1       0.800361496477123d0     0.251677926488997d0     0.501896278050888d0
Ti1      0.011412526851543d0     0.500064876858403d0     0.509680907426159d0
Ti1      0.515323697975219d0     0.247316910906599d0     0.497058402451786d0
O1       0.999603689479196d0     0.999134223434427d0     0.580564302429941d0
O1       0.498605329128252d0     0.003995853851045d0     0.554952670273697d0
O1       0.687386163699461d0     0.263256009851195d0     0.638094445088164d0
O1       0.307079201919896d0     0.262366479344901d0     0.637433794410238d0
Ti1      0.496130370998807d0     0.507584691694873d0     0.623878310703525d0
Ti1      0.993367746967329d0     0.266773560844568d0     0.640366308001958d0
O1       0.500093721748991d0     0.000084921243389d0     0.186906639369252d0
O1       0.996539292321881d0     0.008027820364162d0     0.685444626744764d0
O1       0.198268504441574d0     0.250236248865719d0     0.238667392858710d0
O1       0.801993766892314d0     0.249987153755059d0     0.238669098461250d0
Ti1      0.000123603383822d0     0.999897385958537d0     0.238512187198856d0
Ti1      0.500142521004230d0     0.750038178055688d0     0.238522014307695d0
O1       0.000095322930372d0     0.500084774873452d0     0.317452257936818d0
O1       0.500112315057126d0     0.500084209992886d0     0.290342007718641d0
O1       0.698270105622955d0     0.750236102495782d0     0.369213011426276d0
O1       0.301995368073695d0     0.749987007385122d0     0.369214717028816d0
Ti1      0.499525737551086d0     0.980766093288522d0     0.364372936852221d0
Ti1      0.000063423861855d0     0.739555246163815d0     0.372872140750994d0
O1       0.499551288003954d0     0.499985040507026d0     0.451019266791000d0
O1       0.999815618305801d0     0.497646611631326d0     0.419822217690917d0
O1       0.193301352425564d0     0.748460236462337d0     0.502249169584536d0
O1       0.800289059494758d0     0.750136495745060d0     0.501609507466724d0
Ti1      0.009261355513382d0     0.999583654600366d0     0.508471797284537d0
Ti1      0.515338925176080d0     0.749131235432125d0     0.496396946832208d0
O1       0.997977634091101d0     0.502148404441466d0     0.583510230408040d0
O1       0.498211849533732d0     0.504813953519687d0     0.552697227167558d0
O1       0.686910329613229d0     0.753902728017625d0     0.639459088803817d0
O1       0.307929913959211d0     0.754501294235454d0     0.638975937731440d0
Ti1      0.492664955002957d0     0.009303299027326d0     0.628140890876806d0
Ti1      0.992692824392457d0     0.773462691184451d0     0.641441332955351d0
O1       0.500093721748991d0     0.500084921243389d0     0.186906639369252d0
O1       0.198268504441574d0     0.750236248865719d0     0.238667392858710d0
O1       0.801993766892315d0     0.749987153755059d0     0.238669098461250d0
C1       0.002493848323268d0     0.504787504754191d0     0.695247423581606d0
H1       0.012120123970199d0     0.522837072588933d0     0.737945230470261d0
O1       0.495164535376115d0     0.025166542959115d0     0.722696522888694d0
H1       0.614893206733155d0     0.947126908783089d0     0.735557497834844d0
H1       0.376572746519003d0     0.946517831570424d0     0.736110327153261d0
K_POINTS automatic
4 4 1  0 0 0 
