&CONTROL
  calculation='relax',
  prefix='calc',
  pseudo_dir='/storage/coda1/p-amedford6/0/shared/rich_project_chbe-medford/medford-share/data/pseudos_module/espresso/nninc/pbe/van',
  outdir='.',
  tefield=.true.,
  dipfield=.true.,
  tprnfor=.true.,
  disk_io='none',
/
&SYSTEM
  ibrav=0,
  celldm(1)=1.8897261245650618d0,
  nat=56,
  ntyp=3,
  ecutwfc=29.39945797996531d00,
  ecutrho=293.9945797996531d00,
  nbnd=227,
  occupations='smearing',
  smearing='fd',
  degauss=0.007349864494991328d00,
  input_dft='BEEF-vdW',
  edir=3,
  emaxpos=0.026755335276158476d00,
  eopreg=0.025d00,
  eamp=0.0d00,
  nosym=.false.,
  noinv=.false.,
  nosym_evc=.false.,
  no_t_rev=.false.,
/
&ELECTRONS
  diagonalization='david',
  conv_thr=7.349864494991327e-08,
  mixing_beta=0.05d00,
  electron_maxstep=1000,
  startingpot='file',
  startingwfc='atomic',
/
&IONS
  ion_dynamics='ipi',
/
&CELL
  cell_dynamics='ipi',
/
CELL_PARAMETERS alat
    6.579727202290808d0     0.000000000000000d0     0.000000000000000d0
   -0.001162698663605d0     8.942394630910734d0     0.000000000000000d0
    0.000000000000000d0    -0.000000000000000d0    25.155947251439940d0
ATOMIC_SPECIES
O1 15.999d00 O.UPF
Ti1 47.867d00 Ti.UPF
H1 1.008d00 H.UPF
ATOMIC_POSITIONS {crystal}
O1       0.000111781329999d0     0.000056172521910d0     0.421099706309416d0
O1       0.500099917031209d0     0.997517099278115d0     0.552800294763504d0
O1       0.000042457281669d0     0.008844651672839d0     0.684639893001873d0
O1       0.000095322930372d0     0.000056516582301d0     0.317452257936818d0
O1       0.500138929566303d0     0.998280236436756d0     0.444968255097399d0
O1       0.000116138241208d0     0.002926705689560d0     0.580327535376339d0
O1       0.301995368073695d0     0.166658004923414d0     0.369214717028816d0
O1       0.795742866506191d0     0.180033928630383d0     0.500349300858374d0
O1       0.305888253600936d0     0.175290672655388d0     0.638304902761809d0
Ti1      0.000141987277103d0     0.166692151230444d0     0.369279712898471d0
Ti1      0.500163502459380d0     0.150874254415972d0     0.497297945527214d0
Ti1      0.000117272396165d0     0.144947672461637d0     0.628001573027749d0
O1       0.698270105622955d0     0.166824068330521d0     0.369213011426276d0
O1       0.204454574382512d0     0.180010111445441d0     0.500345272374072d0
O1       0.694235409329845d0     0.175277215689317d0     0.638313302856099d0
Ti1      0.500123069656695d0     0.333264956499010d0     0.369269885789632d0
Ti1      0.000128489947790d0     0.316260989839239d0     0.495625760179662d0
Ti1      0.500122678638398d0     0.328084339237646d0     0.625229234985399d0
O1       0.000111781329999d0     0.333389505855244d0     0.421099706309416d0
O1       0.500113098373091d0     0.332091526246146d0     0.553030464700447d0
O1       0.000095322930372d0     0.333389849915635d0     0.317452257936818d0
O1       0.500131371145046d0     0.331426248869610d0     0.444987980757661d0
O1       0.000061144597317d0     0.338357509048030d0     0.586357924523594d0
O1       0.301995368073695d0     0.499991338256748d0     0.369214717028816d0
O1       0.796178794361217d0     0.512492017499357d0     0.500365827104512d0
O1       0.307638290717078d0     0.502419012932457d0     0.639193916503555d0
Ti1      0.000141987277103d0     0.500025484563778d0     0.369279712898471d0
Ti1      0.500221214424840d0     0.483009113818330d0     0.497586711814754d0
Ti1      0.000114550989642d0     0.516962706171000d0     0.624809743932552d0
O1       0.698270105622955d0     0.500157401663855d0     0.369213011426276d0
O1       0.204110954194836d0     0.512472524573659d0     0.500357358787020d0
O1       0.692460638726039d0     0.502416442709446d0     0.639195438727416d0
Ti1      0.500123069656695d0     0.666598289832344d0     0.369269885789632d0
Ti1      0.000219175614180d0     0.649868427417524d0     0.494928075878187d0
Ti1      0.500078676194702d0     0.661594492912893d0     0.625016447866418d0
O1       0.000111781329999d0     0.666722839188577d0     0.421099706309416d0
O1       0.500114647816411d0     0.665612622207593d0     0.553115566920281d0
O1       0.000030463269176d0     0.660571353062319d0     0.685187611840879d0
O1       0.000095322930372d0     0.666723183248968d0     0.317452257936818d0
O1       0.500156576115670d0     0.664174058034646d0     0.444937014526522d0
O1       0.000117710701560d0     0.672588815462894d0     0.581783559722486d0
O1       0.301995368073695d0     0.833324671590081d0     0.369214717028816d0
O1       0.796202316706853d0     0.844751678402502d0     0.499521392214071d0
O1       0.308424861118420d0     0.838416246117103d0     0.638516163331469d0
Ti1      0.000141987277103d0     0.833358817897111d0     0.369279712898471d0
Ti1      0.500245939654368d0     0.816603877851361d0     0.497050430091239d0
Ti1      0.000080093009927d0     0.829174966791512d0     0.648125169038249d0
O1       0.698270105622955d0     0.833490734997188d0     0.369213011426276d0
O1       0.204070488522041d0     0.844712363722752d0     0.499511961293018d0
O1       0.691710385352507d0     0.838419627379067d0     0.638504259401601d0
Ti1      0.500123069656695d0     0.999931623165677d0     0.369269885789632d0
Ti1      0.000209251193647d0     0.981392941030118d0     0.495612612688331d0
Ti1      0.500099005428402d0     0.992743914880921d0     0.624480680331809d0
O1       0.000189026347478d0     0.333333773035501d0     0.712681045727308d0
H1       0.999810079932435d0     0.246436379447270d0     0.736058412615498d0
H1       0.999910243680456d0     0.422331753159622d0     0.734626169781402d0
K_POINTS automatic
4 4 1  0 0 0 
