&CONTROL
  calculation='relax',
  prefix='calc',
  pseudo_dir='/storage/coda1/p-amedford6/0/shared/rich_project_chbe-medford/medford-share/data/pseudos_module/espresso/nninc/pbe/van',
  outdir='.',
  tefield=.true.,
  dipfield=.true.,
  tprnfor=.true.,
  disk_io='none',
/
&SYSTEM
  ibrav=0,
  celldm(1)=1.8897261245650618d0,
  nat=51,
  ntyp=5,
  ecutwfc=29.39945797996531d00,
  ecutrho=293.9945797996531d00,
  nbnd=206,
  occupations='smearing',
  smearing='fd',
  degauss=0.007349864494991328d00,
  input_dft='BEEF-vdW',
  edir=3,
  emaxpos=0.9928172885721642d00,
  eopreg=0.025d00,
  eamp=0.0d00,
  nosym=.false.,
  noinv=.false.,
  nosym_evc=.false.,
  no_t_rev=.false.,
/
&ELECTRONS
  diagonalization='david',
  conv_thr=7.349864494991327e-08,
  mixing_beta=0.05d00,
  electron_maxstep=1000,
  startingpot='file',
  startingwfc='atomic',
/
&IONS
  ion_dynamics='ipi',
/
&CELL
  cell_dynamics='ipi',
/
CELL_PARAMETERS alat
    6.579727202290808d0     0.000000000000000d0     0.000000000000000d0
   -0.000775132442404d0     5.961596420607155d0     0.000000000000000d0
    0.000000000000000d0    -0.000000000000000d0    25.155947251439940d0
ATOMIC_SPECIES
Ti1 47.867d00 Ti.UPF
O1 15.999d00 O.UPF
N1 14.007d00 N.UPF
C1 12.011d00 C.UPF
H1 1.008d00 H.UPF
ATOMIC_POSITIONS {crystal}
Ti1      0.000123603383822d0     0.499897385958536d0     0.238512187198856d0
Ti1      0.500142521004230d0     0.250038178055688d0     0.238522014307695d0
O1       0.000095322930372d0     0.000084774873452d0     0.317452257936818d0
O1       0.500112315057126d0     0.000084209992886d0     0.290342007718641d0
O1       0.698270105622955d0     0.250236102495782d0     0.369213011426276d0
O1       0.301995368073695d0     0.249987007385122d0     0.369214717028816d0
Ti1      0.500198167309398d0     0.485761668506182d0     0.364758343030283d0
Ti1      0.000261424674789d0     0.248709163236136d0     0.368424970923767d0
O1       0.502193154601954d0     0.997611723659651d0     0.450431184869689d0
O1       0.001882992193933d0     0.999479849154423d0     0.422099495650131d0
O1       0.200774183284851d0     0.247555447153461d0     0.501319902789100d0
O1       0.806791242991424d0     0.246559231906141d0     0.501872125343687d0
Ti1      0.993358815684526d0     0.497215764397709d0     0.501611312677167d0
Ti1      0.489258631885140d0     0.246936107100703d0     0.496246098645806d0
O1       0.006102731680619d0     0.999321968465283d0     0.582826763009036d0
O1       0.501430240704793d0     0.998254673505827d0     0.553223129400009d0
O1       0.694471996412803d0     0.250696817662794d0     0.637936947175363d0
O1       0.318129495883216d0     0.250897710274083d0     0.638514518094788d0
Ti1      0.505483849927341d0     0.499883141747615d0     0.624180799248170d0
Ti1      0.998094682764940d0     0.251220359878310d0     0.629417518622876d0
O1       0.500093721748991d0     0.000084921243389d0     0.186906639369252d0
O1       0.005960862721404d0     0.002360924306864d0     0.684270114999234d0
O1       0.198268504441574d0     0.250236248865719d0     0.238667392858710d0
O1       0.801993766892314d0     0.249987153755059d0     0.238669098461250d0
Ti1      0.000123603383822d0     0.999897385958536d0     0.238512187198856d0
Ti1      0.500142521004230d0     0.750038178055688d0     0.238522014307695d0
O1       0.000095322930372d0     0.500084774873452d0     0.317452257936818d0
O1       0.500112315057126d0     0.500084209992886d0     0.290342007718641d0
O1       0.698270105622955d0     0.750236102495782d0     0.369213011426276d0
O1       0.301995368073695d0     0.749987007385122d0     0.369214717028816d0
Ti1      0.500001644927041d0     0.985370751416071d0     0.364779031055315d0
Ti1      0.000183276761494d0     0.748948988039575d0     0.368476322807288d0
O1       0.502077309187948d0     0.498155461930410d0     0.450445847606052d0
O1       0.001460782485842d0     0.499964783615161d0     0.422656139091726d0
O1       0.200119833185903d0     0.748166323013338d0     0.501674791620017d0
O1       0.807035638783874d0     0.748761304454755d0     0.502330373613818d0
Ti1      0.993254242973987d0     0.996366226750719d0     0.498845658041273d0
Ti1      0.489121588759558d0     0.746840015744813d0     0.496210367525597d0
O1       0.002680908641965d0     0.490791603774039d0     0.582782703241482d0
O1       0.502974034755537d0     0.498901112986394d0     0.552734126108486d0
O1       0.694092144553409d0     0.749274307424089d0     0.638990966763853d0
O1       0.317428978220593d0     0.749006104302920d0     0.639312651466402d0
Ti1      0.499234359739680d0     0.999289095598541d0     0.624753192904740d0
Ti1      0.000666094323470d0     0.777218251349069d0     0.640736079899984d0
O1       0.500093721748991d0     0.500084921243389d0     0.186906639369252d0
O1       0.198268504441574d0     0.750236248865719d0     0.238667392858710d0
O1       0.801993766892315d0     0.749987153755059d0     0.238669098461250d0
N1       0.097375721426519d0     0.469081228910324d0     0.734197666139715d0
C1       0.160364610784031d0     0.439705478000314d0     0.777843347487404d0
H1       0.299762821364459d0     0.413280016595246d0     0.798727937775076d0
N1       0.011999329904178d0     0.496124804689506d0     0.691404548836475d0
K_POINTS automatic
4 4 1  0 0 0 
