&CONTROL
  calculation='relax',
  prefix='calc',
  pseudo_dir='/storage/coda1/p-amedford6/0/shared/rich_project_chbe-medford/medford-share/data/pseudos_module/espresso/nninc/pbe/van',
  outdir='.',
  tefield=.true.,
  dipfield=.true.,
  tprnfor=.true.,
  disk_io='none',
/
&SYSTEM
  ibrav=0,
  celldm(1)=1.8897261245650618d0,
  nat=55,
  ntyp=5,
  ecutwfc=29.39945797996531d00,
  ecutrho=293.9945797996531d00,
  nbnd=208,
  occupations='smearing',
  smearing='fd',
  degauss=0.007349864494991328d00,
  input_dft='BEEF-vdW',
  edir=3,
  emaxpos=0.9907351193931035d00,
  eopreg=0.025d00,
  eamp=0.0d00,
  nosym=.false.,
  noinv=.false.,
  nosym_evc=.false.,
  no_t_rev=.false.,
/
&ELECTRONS
  diagonalization='david',
  conv_thr=7.349864494991327e-08,
  mixing_beta=0.05d00,
  electron_maxstep=1000,
  startingpot='file',
  startingwfc='atomic',
/
&IONS
  ion_dynamics='ipi',
/
&CELL
  cell_dynamics='ipi',
/
CELL_PARAMETERS alat
    6.579727202290808d0     0.000000000000000d0     0.000000000000000d0
   -0.000775132442404d0     5.961596420607155d0     0.000000000000000d0
    0.000000000000000d0    -0.000000000000000d0    25.155947251439940d0
ATOMIC_SPECIES
Ti1 47.867d00 Ti.UPF
O1 15.999d00 O.UPF
N1 14.007d00 N.UPF
C1 12.011d00 C.UPF
H1 1.008d00 H.UPF
ATOMIC_POSITIONS {crystal}
Ti1      0.000123603383822d0     0.499897385958536d0     0.238512187198856d0
Ti1      0.500142521004230d0     0.250038178055688d0     0.238522014307695d0
O1       0.000095322930372d0     0.000084774873452d0     0.317452257936818d0
O1       0.500112315057126d0     0.000084209992886d0     0.290342007718641d0
O1       0.698270105622955d0     0.250236102495782d0     0.369213011426276d0
O1       0.301995368073695d0     0.249987007385122d0     0.369214717028816d0
Ti1      0.500198167309398d0     0.485761668506182d0     0.364758343030283d0
Ti1      0.000261424674789d0     0.248709163236136d0     0.368424970923767d0
O1       0.499076576060821d0     0.999696320464934d0     0.450567231340005d0
O1       0.001882992193933d0     0.999479849154423d0     0.422099495650131d0
O1       0.195862560653493d0     0.249179260152943d0     0.502372477163953d0
O1       0.801339346076688d0     0.250127766442414d0     0.500623164807998d0
Ti1      0.006291316171940d0     0.508579334648523d0     0.501209523950070d0
Ti1      0.512806677076752d0     0.250210845016545d0     0.496198662305173d0
O1       0.985788313054878d0     0.002581783960205d0     0.582188741209587d0
O1       0.508338599213566d0     0.999927439439156d0     0.552756085122690d0
O1       0.682935344071792d0     0.259715676376206d0     0.640926585554636d0
O1       0.303459804764407d0     0.243838277310757d0     0.632563023623388d0
Ti1      0.477479709404935d0     0.503512218759309d0     0.625862605459210d0
Ti1      0.985232258803423d0     0.257805808748899d0     0.628106217482343d0
O1       0.500093721748991d0     0.000084921243389d0     0.186906639369252d0
O1       0.998661143862680d0     0.008764003381537d0     0.684064233997235d0
O1       0.198268504441574d0     0.250236248865719d0     0.238667392858710d0
O1       0.801993766892314d0     0.249987153755059d0     0.238669098461250d0
Ti1      0.000123603383822d0     0.999897385958536d0     0.238512187198856d0
Ti1      0.500142521004230d0     0.750038178055688d0     0.238522014307695d0
O1       0.000095322930372d0     0.500084774873452d0     0.317452257936818d0
O1       0.500112315057126d0     0.500084209992886d0     0.290342007718641d0
O1       0.698270105622955d0     0.750236102495782d0     0.369213011426276d0
O1       0.301995368073695d0     0.749987007385122d0     0.369214717028816d0
Ti1      0.500001644927041d0     0.985370751416071d0     0.364779031055315d0
Ti1      0.000183276761494d0     0.748948988039575d0     0.368476322807288d0
O1       0.499070632192527d0     0.500250866301139d0     0.450585666512101d0
O1       0.001460782485842d0     0.499964783615161d0     0.422656139091726d0
O1       0.195212403778413d0     0.752488681927914d0     0.502738845993174d0
O1       0.801947465417663d0     0.748239214546104d0     0.500937183657159d0
Ti1      0.010231353458936d0     0.007384925600077d0     0.498735935209518d0
Ti1      0.512455643143940d0     0.749043161445855d0     0.496637349467899d0
O1       0.991246452097889d0     0.496343096078565d0     0.582021209575510d0
O1       0.498704889195237d0     0.502491279771779d0     0.553880527717493d0
O1       0.682669424803231d0     0.747838568994391d0     0.642540112051255d0
O1       0.303099472110541d0     0.762008138481403d0     0.635002801511144d0
Ti1      0.500869923349579d0     0.002813870807818d0     0.623960065248202d0
Ti1      0.989225198910409d0     0.783599013509229d0     0.640282578132151d0
O1       0.500093721748991d0     0.500084921243389d0     0.186906639369252d0
O1       0.198268504441574d0     0.750236248865719d0     0.238667392858710d0
O1       0.801993766892315d0     0.749987153755059d0     0.238669098461250d0
N1       0.211996236792221d0     0.475805564290204d0     0.722887908472707d0
N1       0.027079410563544d0     0.497359433193933d0     0.692527644741106d0
C1       0.214653886996431d0     0.622797547679185d0     0.769427670572044d0
H1       0.078671827408616d0     0.603799704356938d0     0.794563599416955d0
H1       0.347120902920143d0     0.581741949944621d0     0.793123309484474d0
H1       0.223565101000245d0     0.797102508706100d0     0.756559928618939d0
H1       0.221624746593545d0     0.312364753950708d0     0.734709675966467d0
H1       0.905241223003975d0     0.482214379514857d0     0.717730055557279d0
K_POINTS automatic
4 4 1  0 0 0 
