&CONTROL
  calculation='relax',
  prefix='calc',
  pseudo_dir='/storage/coda1/p-amedford6/0/shared/rich_project_chbe-medford/medford-share/data/pseudos_module/espresso/nninc/pbe/van',
  outdir='.',
  tefield=.true.,
  dipfield=.true.,
  tprnfor=.true.,
  disk_io='none',
/
&SYSTEM
  ibrav=0,
  celldm(1)=1.8897261245650618d0,
  nat=52,
  ntyp=5,
  ecutwfc=29.39945797996531d00,
  ecutrho=293.9945797996531d00,
  nbnd=205,
  occupations='smearing',
  smearing='fd',
  degauss=0.007349864494991328d00,
  input_dft='BEEF-vdW',
  edir=3,
  emaxpos=0.9759684213869612d00,
  eopreg=0.025d00,
  eamp=0.0d00,
  nosym=.false.,
  noinv=.false.,
  nosym_evc=.false.,
  no_t_rev=.false.,
/
&ELECTRONS
  diagonalization='david',
  conv_thr=7.349864494991327e-08,
  mixing_beta=0.05d00,
  electron_maxstep=1000,
  startingwfc='atomic',
/
&IONS
  ion_dynamics='ipi',
/
&CELL
  cell_dynamics='ipi',
/
CELL_PARAMETERS alat
    6.579727202290808d0     0.000000000000000d0     0.000000000000000d0
   -0.000775132442404d0     5.961596420607155d0     0.000000000000000d0
    0.000000000000000d0    -0.000000000000000d0    25.155947251439940d0
ATOMIC_SPECIES
Ti1 47.867d00 Ti.UPF
O1 15.999d00 O.UPF
N1 14.007d00 N.UPF
C1 12.011d00 C.UPF
H1 1.008d00 H.UPF
ATOMIC_POSITIONS {crystal}
Ti1      0.000123603383822d0     0.499897385958536d0     0.238512187198856d0
Ti1      0.500142521004230d0     0.250038178055688d0     0.238522014307695d0
O1       0.000095322930372d0     0.000084774873452d0     0.317452257936818d0
O1       0.500112315057126d0     0.000084209992886d0     0.290342007718641d0
O1       0.698270105622955d0     0.250236102495782d0     0.369213011426276d0
O1       0.301995368073695d0     0.249987007385122d0     0.369214717028816d0
Ti1      0.500198167309398d0     0.485761668506182d0     0.364758343030283d0
Ti1      0.000261424674789d0     0.248709163236136d0     0.368424970923767d0
O1       0.502666643092446d0     0.001756654427094d0     0.448829406710187d0
O1       0.001882992193933d0     0.999479849154423d0     0.422099495650131d0
O1       0.202788057087041d0     0.253379945788612d0     0.500547980104990d0
O1       0.806927009233170d0     0.254496804696290d0     0.502542899878833d0
Ti1      0.985957639071390d0     0.502681199580436d0     0.507667705403238d0
Ti1      0.481690679652410d0     0.251257579748759d0     0.495216829101380d0
O1       0.011359338416031d0     0.007265056235104d0     0.579945206091652d0
O1       0.502213467816411d0     0.003737871212386d0     0.551223373934833d0
O1       0.698032618780716d0     0.254342435849243d0     0.636105369845475d0
O1       0.325298883170552d0     0.254141175771684d0     0.638473156098812d0
Ti1      0.507517324098139d0     0.505696798298371d0     0.622870698141641d0
Ti1      0.008823793188575d0     0.248689330063316d0     0.640682418987150d0
O1       0.500093721748991d0     0.000084921243389d0     0.186906639369252d0
O1       0.008847717112295d0     0.001918828153519d0     0.683474806424273d0
O1       0.198268504441574d0     0.250236248865719d0     0.238667392858710d0
O1       0.801993766892314d0     0.249987153755059d0     0.238669098461250d0
Ti1      0.000123603383822d0     0.999897385958536d0     0.238512187198856d0
Ti1      0.500142521004230d0     0.750038178055688d0     0.238522014307695d0
O1       0.000095322930372d0     0.500084774873452d0     0.317452257936818d0
O1       0.500112315057126d0     0.500084209992886d0     0.290342007718641d0
O1       0.698270105622955d0     0.750236102495782d0     0.369213011426276d0
O1       0.301995368073695d0     0.749987007385122d0     0.369214717028816d0
Ti1      0.500001644927041d0     0.985370751416071d0     0.364779031055315d0
Ti1      0.000183276761494d0     0.748948988039575d0     0.368476322807288d0
O1       0.502205331326004d0     0.502483464040748d0     0.448759804599266d0
O1       0.001460782485842d0     0.499964783615161d0     0.422656139091726d0
O1       0.202271971721955d0     0.752171317333641d0     0.500886642534113d0
O1       0.806969994022814d0     0.750999273050213d0     0.503021146399294d0
Ti1      0.989789725850844d0     0.002434777034127d0     0.507654287983299d0
Ti1      0.481233680199081d0     0.751602077221416d0     0.495147625990287d0
O1       0.008091141609826d0     0.505149986378840d0     0.582665790640780d0
O1       0.500354870621408d0     0.503746675613630d0     0.551383640469945d0
O1       0.698213531371078d0     0.752679721059472d0     0.636105988393801d0
O1       0.325118321892388d0     0.754743283682037d0     0.638545309159008d0
Ti1      0.510930605125755d0     0.005151291564448d0     0.623112787979635d0
Ti1      0.007646242011257d0     0.747453627714277d0     0.640188629062934d0
O1       0.500093721748991d0     0.500084921243389d0     0.186906639369252d0
O1       0.198268504441574d0     0.750236248865719d0     0.238667392858710d0
O1       0.801993766892315d0     0.749987153755059d0     0.238669098461250d0
N1       0.018627098110136d0     0.503987488037013d0     0.688678376814763d0
C1       0.083439465862355d0     0.501035705366617d0     0.743679292289956d0
H1       0.029554401461573d0     0.650048869357356d0     0.765030203404670d0
H1       0.030092971201820d0     0.350007548703802d0     0.764322556840271d0
H1       0.250355272266423d0     0.501317329586295d0     0.745687414526972d0
K_POINTS automatic
4 4 1  0 0 0 
