&CONTROL
  calculation='relax',
  prefix='calc',
  pseudo_dir='/storage/coda1/p-amedford6/0/shared/rich_project_chbe-medford/medford-share/data/pseudos_module/espresso/nninc/pbe/van',
  outdir='.',
  tefield=.true.,
  dipfield=.true.,
  tprnfor=.true.,
  disk_io='none',
/
&SYSTEM
  ibrav=0,
  celldm(1)=1.8897261245650618d0,
  nat=48,
  ntyp=3,
  ecutwfc=29.39945797996531d00,
  ecutrho=293.9945797996531d00,
  nbnd=201,
  occupations='smearing',
  smearing='fd',
  degauss=0.007349864494991328d00,
  nspin=2,
  starting_magnetization(1)=0.0d00,
  starting_magnetization(2)=0.0d00,
  starting_magnetization(3)=0.15d00,
  input_dft='BEEF-vdW',
  edir=3,
  emaxpos=0.9407788197399168d00,
  eopreg=0.025d00,
  eamp=0.0d00,
  nosym=.false.,
  noinv=.false.,
  nosym_evc=.false.,
  no_t_rev=.false.,
/
&ELECTRONS
  diagonalization='david',
  conv_thr=7.349864494991327e-08,
  mixing_beta=0.05d00,
  electron_maxstep=1000,
  startingwfc='atomic',
/
&IONS
  ion_dynamics='ipi',
/
&CELL
  cell_dynamics='ipi',
/
CELL_PARAMETERS alat
    6.579727202290808d0     0.000000000000000d0     0.000000000000000d0
   -0.000775132442404d0     5.961596420607155d0     0.000000000000000d0
    0.000000000000000d0    -0.000000000000000d0    25.155947251439940d0
ATOMIC_SPECIES
Ti1 47.867d00 Ti.UPF
O1 15.999d00 O.UPF
C1 12.011d00 C.UPF
ATOMIC_POSITIONS {crystal}
Ti1      0.000123603383822d0     0.499897385958537d0     0.238512187198856d0
Ti1      0.500142521004230d0     0.250038178055688d0     0.238522014307695d0
O1       0.000095322930372d0     0.000084774873452d0     0.317452257936818d0
O1       0.500112315057126d0     0.000084209992886d0     0.290342007718641d0
O1       0.698270105622955d0     0.250236102495782d0     0.369213011426276d0
O1       0.301995368073695d0     0.249987007385122d0     0.369214717028816d0
Ti1      0.498899461483449d0     0.484084940736083d0     0.364340162498497d0
Ti1      0.999413430524554d0     0.247453764230490d0     0.373020775972752d0
O1       0.499432053050828d0     0.998963241584526d0     0.451562549330772d0
O1       0.000008855694896d0     0.999488943943821d0     0.419873403680057d0
O1       0.193918853285248d0     0.251361312176008d0     0.503113951755968d0
O1       0.800470731989343d0     0.250825360157851d0     0.502388141978520d0
Ti1      0.012733279378343d0     0.499706730691632d0     0.511506988714242d0
Ti1      0.516805598237554d0     0.248515284051041d0     0.496830989949179d0
O1       0.998585503422287d0     0.999698340247978d0     0.581088507562794d0
O1       0.499257780492527d0     0.999743838285475d0     0.554600903459154d0
O1       0.686814112405824d0     0.250872723808963d0     0.640093365383667d0
O1       0.310256804635463d0     0.250665539578670d0     0.640087161345694d0
Ti1      0.497574716641968d0     0.499926493769238d0     0.625653523886978d0
Ti1      0.997600337214831d0     0.242974119551909d0     0.642707071399976d0
O1       0.500093721748991d0     0.000084921243389d0     0.186906639369252d0
O1       0.998895036555521d0     0.999825757231785d0     0.686098392882685d0
O1       0.198268504441574d0     0.250236248865719d0     0.238667392858710d0
O1       0.801993766892314d0     0.249987153755059d0     0.238669098461250d0
Ti1      0.000123603383822d0     0.999897385958537d0     0.238512187198856d0
Ti1      0.500142521004230d0     0.750038178055688d0     0.238522014307695d0
O1       0.000095322930372d0     0.500084774873452d0     0.317452257936818d0
O1       0.500112315057126d0     0.500084209992886d0     0.290342007718641d0
O1       0.698270105622955d0     0.750236102495782d0     0.369213011426276d0
O1       0.301995368073695d0     0.749987007385122d0     0.369214717028816d0
Ti1      0.499912644614663d0     0.984064928408632d0     0.364282956663095d0
Ti1      0.999670888976159d0     0.746319556099388d0     0.373050319489843d0
O1       0.499798008149015d0     0.498927326927051d0     0.451381048156328d0
O1       0.000106999246725d0     0.499500613779315d0     0.419737048622041d0
O1       0.193919705437323d0     0.747810804772958d0     0.503108956997810d0
O1       0.800489479097933d0     0.748053646810475d0     0.502389376049657d0
Ti1      0.010725448031044d0     0.999683735813955d0     0.509042280660170d0
Ti1      0.516822108218873d0     0.748011591262061d0     0.496798574663347d0
O1       0.000280831321601d0     0.499725368716389d0     0.584667827259479d0
O1       0.498907007466867d0     0.499673987069276d0     0.554181752314483d0
O1       0.686822881149915d0     0.748988899354451d0     0.640084212446815d0
O1       0.310272878976211d0     0.749149283377469d0     0.640081367852485d0
Ti1      0.498191310596310d0     0.999922278636121d0     0.626148544637451d0
Ti1      0.997510893711159d0     0.756907522603604d0     0.642704673909142d0
O1       0.500093721748991d0     0.500084921243389d0     0.186906639369252d0
C1       0.997463376064251d0     0.499845514992975d0     0.694651000110581d0
O1       0.198268504441574d0     0.750236248865719d0     0.238667392858710d0
O1       0.801993766892315d0     0.749987153755059d0     0.238669098461250d0
K_POINTS automatic
4 4 1  0 0 0 
