&CONTROL
  calculation='relax',
  prefix='calc',
  pseudo_dir='/storage/coda1/p-amedford6/0/shared/rich_project_chbe-medford/medford-share/data/pseudos_module/espresso/nninc/pbe/van',
  outdir='.',
  tefield=.true.,
  dipfield=.true.,
  tprnfor=.true.,
  disk_io='none',
/
&SYSTEM
  ibrav=0,
  celldm(1)=1.8897261245650618d0,
  nat=56,
  ntyp=5,
  ecutwfc=29.39945797996531d00,
  ecutrho=293.9945797996531d00,
  nbnd=209,
  occupations='smearing',
  smearing='fd',
  degauss=0.007349864494991328d00,
  input_dft='BEEF-vdW',
  edir=3,
  emaxpos=0.9941836996349389d00,
  eopreg=0.025d00,
  eamp=0.0d00,
  nosym=.false.,
  noinv=.false.,
  nosym_evc=.false.,
  no_t_rev=.false.,
/
&ELECTRONS
  diagonalization='david',
  conv_thr=7.349864494991327e-08,
  mixing_beta=0.05d00,
  electron_maxstep=1000,
  startingpot='file',
  startingwfc='atomic',
/
&IONS
  ion_dynamics='ipi',
/
&CELL
  cell_dynamics='ipi',
/
CELL_PARAMETERS alat
    6.579727202290808d0     0.000000000000000d0     0.000000000000000d0
   -0.000775132442404d0     5.961596420607155d0     0.000000000000000d0
    0.000000000000000d0    -0.000000000000000d0    25.155947251439940d0
ATOMIC_SPECIES
Ti1 47.867d00 Ti.UPF
O1 15.999d00 O.UPF
N1 14.007d00 N.UPF
C1 12.011d00 C.UPF
H1 1.008d00 H.UPF
ATOMIC_POSITIONS {crystal}
Ti1      0.000123603383822d0     0.499897385958536d0     0.238512187198856d0
Ti1      0.500142521004230d0     0.250038178055688d0     0.238522014307695d0
O1       0.000095322930372d0     0.000084774873452d0     0.317452257936818d0
O1       0.500112315057126d0     0.000084209992886d0     0.290342007718641d0
O1       0.698270105622955d0     0.250236102495782d0     0.369213011426276d0
O1       0.301995368073695d0     0.249987007385122d0     0.369214717028816d0
Ti1      0.500198167309398d0     0.485761668506182d0     0.364758343030283d0
Ti1      0.000261424674789d0     0.248709163236136d0     0.368424970923767d0
O1       0.502037821585085d0     0.001846668028878d0     0.451127439154750d0
O1       0.001882992193933d0     0.999479849154423d0     0.422099495650131d0
O1       0.197920084035219d0     0.250925680088482d0     0.502458478241448d0
O1       0.803960340261103d0     0.250252083838856d0     0.503309407228380d0
Ti1      0.005437711112833d0     0.503436003975484d0     0.498980617405343d0
Ti1      0.505754965884094d0     0.251748785457540d0     0.496815210777763d0
O1       0.006446073612980d0     0.000792318159047d0     0.585459152163602d0
O1       0.497936323312560d0     0.000793951524071d0     0.555810967380956d0
O1       0.692939239030913d0     0.256619061029300d0     0.639732339157755d0
O1       0.313299859630746d0     0.262453047935961d0     0.645003307711106d0
Ti1      0.504197137088674d0     0.508148419340754d0     0.624161617291629d0
Ti1      0.991980374407537d0     0.259525114398891d0     0.627359381889973d0
O1       0.500093721748991d0     0.000084921243389d0     0.186906639369252d0
O1       0.003923007704972d0     0.006647803687968d0     0.688854193626102d0
O1       0.198268504441574d0     0.250236248865719d0     0.238667392858710d0
O1       0.801993766892314d0     0.249987153755059d0     0.238669098461250d0
Ti1      0.000123603383822d0     0.999897385958536d0     0.238512187198856d0
Ti1      0.500142521004230d0     0.750038178055688d0     0.238522014307695d0
O1       0.000095322930372d0     0.500084774873452d0     0.317452257936818d0
O1       0.500112315057126d0     0.500084209992886d0     0.290342007718641d0
O1       0.698270105622955d0     0.750236102495782d0     0.369213011426276d0
O1       0.301995368073695d0     0.749987007385122d0     0.369214717028816d0
Ti1      0.500001644927041d0     0.985370751416071d0     0.364779031055315d0
Ti1      0.000183276761494d0     0.748948988039575d0     0.368476322807288d0
O1       0.502317716422907d0     0.500933037005402d0     0.450839221933810d0
O1       0.001460782485842d0     0.499964783615161d0     0.422656139091726d0
O1       0.198017141301702d0     0.751781070388446d0     0.502050346558495d0
O1       0.804237122646208d0     0.752143134562612d0     0.502787118705165d0
Ti1      0.004654947617141d0     0.001632841628198d0     0.497521216437072d0
Ti1      0.506117706878102d0     0.751336590077240d0     0.496372985197179d0
O1       0.004912482764609d0     0.502139989716255d0     0.585719230609411d0
O1       0.499105772063431d0     0.503857571741504d0     0.553447036219272d0
O1       0.694177480989240d0     0.751630679337369d0     0.642845287565064d0
O1       0.312297717739931d0     0.749269139880923d0     0.644966841878474d0
Ti1      0.501543427772207d0     0.002529175321902d0     0.626768392322250d0
Ti1      0.006425926625977d0     0.787626677724043d0     0.642538471880556d0
O1       0.500093721748991d0     0.500084921243389d0     0.186906639369252d0
O1       0.198268504441574d0     0.750236248865719d0     0.238667392858710d0
O1       0.801993766892315d0     0.749987153755059d0     0.238669098461250d0
N1       0.137127761281403d0     0.406369007371491d0     0.733694888145324d0
N1       0.986783002035079d0     0.489014223834671d0     0.697045772308562d0
C1       0.192089824553246d0     0.561631723787447d0     0.777330701894446d0
H1       0.059672595763391d0     0.594876332662659d0     0.801460759900625d0
H1       0.312426726227877d0     0.483647184539554d0     0.801294682171022d0
H1       0.246899615852234d0     0.716733685031745d0     0.759441938965291d0
H1       0.089257845903154d0     0.250650088547749d0     0.746673091574690d0
H1       0.850905690370866d0     0.477838756267723d0     0.716169271782938d0
H1       0.258799232444400d0     0.365555111842387d0     0.708520214624418d0
K_POINTS automatic
4 4 1  0 0 0 
