&CONTROL
  calculation='relax',
  prefix='calc',
  pseudo_dir='/storage/coda1/p-amedford6/0/shared/rich_project_chbe-medford/medford-share/data/pseudos_module/espresso/nninc/pbe/van',
  outdir='.',
  tefield=.true.,
  dipfield=.true.,
  tprnfor=.true.,
  disk_io='none',
/
&SYSTEM
  ibrav=0,
  celldm(1)=1.8897261245650618d0,
  nat=56,
  ntyp=5,
  ecutwfc=29.39945797996531d00,
  ecutrho=293.9945797996531d00,
  nbnd=214,
  occupations='smearing',
  smearing='fd',
  degauss=0.007349864494991328d00,
  input_dft='BEEF-vdW',
  edir=3,
  emaxpos=0.041728477786845186d00,
  eopreg=0.025d00,
  eamp=0.0d00,
  nosym=.false.,
  noinv=.false.,
  nosym_evc=.false.,
  no_t_rev=.false.,
/
&ELECTRONS
  diagonalization='david',
  conv_thr=7.349864494991327e-08,
  mixing_beta=0.05d00,
  electron_maxstep=1000,
  startingpot='file',
  startingwfc='atomic',
/
&IONS
  ion_dynamics='ipi',
/
&CELL
  cell_dynamics='ipi',
/
CELL_PARAMETERS alat
    6.579727202290808d0     0.000000000000000d0     0.000000000000000d0
   -0.000775132442404d0     5.961596420607155d0     0.000000000000000d0
    0.000000000000000d0    -0.000000000000000d0    25.155947251439940d0
ATOMIC_SPECIES
Ti1 47.867d00 Ti.UPF
O1 15.999d00 O.UPF
C1 12.011d00 C.UPF
H1 1.008d00 H.UPF
N1 14.007d00 N.UPF
ATOMIC_POSITIONS {crystal}
Ti1      0.000123603383822d0     0.499897385958537d0     0.238512187198856d0
Ti1      0.500142521004230d0     0.250038178055688d0     0.238522014307695d0
O1       0.000095322930372d0     0.000084774873452d0     0.317452257936818d0
O1       0.500112315057126d0     0.000084209992886d0     0.290342007718641d0
O1       0.698270105622955d0     0.250236102495782d0     0.369213011426276d0
O1       0.301995368073695d0     0.249987007385122d0     0.369214717028816d0
Ti1      0.503710304686634d0     0.520384523534139d0     0.366446775104915d0
Ti1      0.005989946982343d0     0.264708300797216d0     0.371415458939732d0
O1       0.499535070721711d0     0.003566179765708d0     0.449736237022510d0
O1       0.000343000483462d0     0.002357005969705d0     0.420810552669900d0
O1       0.194072092326998d0     0.251650658622944d0     0.501690989267795d0
O1       0.805438064431310d0     0.250667714347280d0     0.501560977093707d0
Ti1      0.003109396432744d0     0.516318328734786d0     0.508503296991645d0
Ti1      0.495107421233715d0     0.262302624453372d0     0.493769855230345d0
O1       0.999561197211135d0     0.002658783262637d0     0.583092379246971d0
O1       0.499939406164749d0     0.994897961104080d0     0.552989507586050d0
O1       0.693386184998712d0     0.255984662623684d0     0.637616595168754d0
O1       0.308444949827355d0     0.258850573725348d0     0.636776038330346d0
Ti1      0.502019087008678d0     0.495961149511869d0     0.622202618332797d0
Ti1      0.008429669446782d0     0.240914603511467d0     0.634795080202864d0
O1       0.500093721748991d0     0.000084921243389d0     0.186906639369252d0
O1       0.007418486355508d0     0.003553702634065d0     0.683340726522800d0
O1       0.198268504441574d0     0.250236248865719d0     0.238667392858710d0
O1       0.801993766892314d0     0.249987153755059d0     0.238669098461250d0
Ti1      0.000123603383822d0     0.999897385958537d0     0.238512187198856d0
Ti1      0.500142521004230d0     0.750038178055688d0     0.238522014307695d0
O1       0.000095322930372d0     0.500084774873452d0     0.317452257936818d0
O1       0.500112315057126d0     0.500084209992886d0     0.290342007718641d0
O1       0.698270105622955d0     0.750236102495782d0     0.369213011426276d0
O1       0.301995368073695d0     0.749987007385122d0     0.369214717028816d0
Ti1      0.504885571086120d0     0.019623716093657d0     0.364884390511658d0
Ti1      0.005762292810393d0     0.759536169599434d0     0.372057171970495d0
O1       0.499889950933660d0     0.496421921002846d0     0.448606402830038d0
O1       0.000772076495545d0     0.502971896882324d0     0.419284765816265d0
O1       0.194892866312747d0     0.749920086541998d0     0.502110000825428d0
O1       0.807097239591878d0     0.752635180527914d0     0.501837005284176d0
Ti1      0.992880372748485d0     0.015718962673325d0     0.501206830327014d0
Ti1      0.498452568617868d0     0.781594989577019d0     0.503634232859920d0
O1       0.001015034692797d0     0.501883102973875d0     0.583097947189427d0
O1       0.502812763402326d0     0.500085693823851d0     0.551491456483494d0
O1       0.691828825426608d0     0.745582751332640d0     0.638796955253838d0
O1       0.307731925889169d0     0.742870613431036d0     0.636388304742138d0
Ti1      0.513396097843780d0     0.996081452423015d0     0.645877216498448d0
Ti1      0.012938093776700d0     0.765792052729307d0     0.637316417890251d0
O1       0.500093721748991d0     0.500084921243389d0     0.186906639369252d0
O1       0.198268504441574d0     0.750236248865719d0     0.238667392858710d0
O1       0.801993766892315d0     0.749987153755059d0     0.238669098461250d0
C1       0.913497432098344d0     0.499602202737312d0     0.739740356890839d0
O1       0.997805843772988d0     0.502424331690305d0     0.687425842631602d0
H1       0.747589020214321d0     0.493281384810149d0     0.738098359735436d0
H1       0.968223432543394d0     0.351192284982725d0     0.760738546075035d0
H1       0.957850335080745d0     0.651240032223298d0     0.760851597365613d0
N1       0.915937046589741d0     0.531573635193992d0     0.896550316204438d0
N1       0.781510885784320d0     0.520875126198086d0     0.870421905481418d0
O1       0.487501189788624d0     0.999428114676312d0     0.718360916600975d0
H1       0.357169821778060d0     0.038207754995482d0     0.733880162804529d0
K_POINTS automatic
4 4 1  0 0 0 
