&CONTROL
  calculation='relax',
  prefix='calc',
  pseudo_dir='/storage/coda1/p-amedford6/0/shared/rich_project_chbe-medford/medford-share/data/pseudos_module/espresso/nninc/pbe/van',
  outdir='.',
  tefield=.true.,
  dipfield=.true.,
  tprnfor=.true.,
  disk_io='none',
/
&SYSTEM
  ibrav=0,
  celldm(1)=1.8897261245650618d0,
  nat=54,
  ntyp=5,
  ecutwfc=29.39945797996531d00,
  ecutrho=293.9945797996531d00,
  nbnd=210,
  occupations='smearing',
  smearing='fd',
  degauss=0.007349864494991328d00,
  input_dft='BEEF-vdW',
  edir=3,
  emaxpos=0.9898357117824763d00,
  eopreg=0.025d00,
  eamp=0.0d00,
  nosym=.false.,
  noinv=.false.,
  nosym_evc=.false.,
  no_t_rev=.false.,
/
&ELECTRONS
  diagonalization='david',
  conv_thr=7.349864494991327e-08,
  mixing_beta=0.05d00,
  electron_maxstep=1000,
  startingpot='file',
  startingwfc='atomic',
/
&IONS
  ion_dynamics='ipi',
/
&CELL
  cell_dynamics='ipi',
/
CELL_PARAMETERS alat
    6.579727202290808d0     0.000000000000000d0     0.000000000000000d0
   -0.000775132442404d0     5.961596420607155d0     0.000000000000000d0
    0.000000000000000d0    -0.000000000000000d0    25.155947251439940d0
ATOMIC_SPECIES
O1 15.999d00 O.UPF
Ti1 47.867d00 Ti.UPF
N1 14.007d00 N.UPF
C1 12.011d00 C.UPF
H1 1.008d00 H.UPF
ATOMIC_POSITIONS {crystal}
O1       0.500093721748991d0     0.000084921243389d0     0.186906639369252d0
O1       0.500093721748991d0     0.500084921243389d0     0.186906639369252d0
Ti1      0.000123603383822d0     0.499897385958536d0     0.238512187198856d0
Ti1      0.000123603383822d0     0.999897385958536d0     0.238512187198856d0
Ti1      0.500142521004230d0     0.250038178055688d0     0.238522014307695d0
Ti1      0.500142521004230d0     0.750038178055688d0     0.238522014307695d0
O1       0.198268504441574d0     0.250236248865719d0     0.238667392858710d0
O1       0.198268504441574d0     0.750236248865719d0     0.238667392858710d0
O1       0.801993766892314d0     0.249987153755059d0     0.238669098461250d0
O1       0.801993766892315d0     0.749987153755059d0     0.238669098461250d0
O1       0.500112315057126d0     0.000084209992886d0     0.290342007718641d0
O1       0.500112315057126d0     0.500084209992886d0     0.290342007718641d0
O1       0.000095322930372d0     0.000084774873452d0     0.317452257936818d0
O1       0.000095322930372d0     0.500084774873452d0     0.317452257936818d0
Ti1      0.500198167309398d0     0.485761668506182d0     0.364758343030283d0
Ti1      0.500001644927041d0     0.985370751416071d0     0.364779031055315d0
Ti1      0.000261424674789d0     0.248709163236136d0     0.368424970923767d0
Ti1      0.000183276761494d0     0.748948988039575d0     0.368476322807288d0
O1       0.698270105622955d0     0.250236102495782d0     0.369213011426276d0
O1       0.698270105622955d0     0.750236102495782d0     0.369213011426276d0
O1       0.301995368073695d0     0.249987007385122d0     0.369214717028816d0
O1       0.301995368073695d0     0.749987007385122d0     0.369214717028816d0
O1       0.001882992193933d0     0.999479849154423d0     0.422099495650131d0
O1       0.001460782485842d0     0.499964783615161d0     0.422656139091726d0
O1       0.494479579164445d0     0.496850821998668d0     0.450481744319120d0
O1       0.493675340156500d0     0.996973237864962d0     0.450940205333306d0
Ti1      0.505239656187287d0     0.734943912332967d0     0.499176734726897d0
Ti1      0.001436470827321d0     0.001548334333342d0     0.497584177442519d0
Ti1      0.504980266153334d0     0.242425943525735d0     0.495888416612845d0
Ti1      0.001430655196614d0     0.503023481146471d0     0.500164283762323d0
O1       0.797884005475326d0     0.247020150705998d0     0.500901117984115d0
O1       0.798475834671387d0     0.746378375353748d0     0.500918175546083d0
O1       0.188643763193299d0     0.245902730974977d0     0.503546497881381d0
O1       0.188350261384605d0     0.749567242593030d0     0.503520095711577d0
O1       0.502691511815855d0     0.999137511471266d0     0.552584408620391d0
O1       0.492789719534397d0     0.503318884943847d0     0.553665213167822d0
O1       0.975978982275179d0     0.997035910673652d0     0.584440815619459d0
O1       0.981678553268433d0     0.496134300396871d0     0.584310975860707d0
Ti1      0.492779276443277d0     0.004753667132499d0     0.623428341773236d0
Ti1      0.976314473707536d0     0.254193752433634d0     0.627227336261264d0
Ti1      0.468151272176467d0     0.505676358248320d0     0.630464271294636d0
O1       0.294228339222078d0     0.240857467979347d0     0.632482897844385d0
O1       0.292975981906814d0     0.762335769000270d0     0.634681316799950d0
Ti1      0.980671634031514d0     0.782831949200828d0     0.641481787816036d0
O1       0.675497385226066d0     0.252802324799064d0     0.640541344999027d0
O1       0.674847060776233d0     0.750353043174209d0     0.642103055310564d0
O1       0.990429921549468d0     0.004657631829700d0     0.686579554971328d0
N1       0.057182122412226d0     0.437719032559473d0     0.740724318301282d0
C1       0.427685869904752d0     0.487815064109243d0     0.721566833654687d0
H1       0.025206826995030d0     0.268169363476547d0     0.743388989374521d0
N1       0.276111830891791d0     0.447075727052712d0     0.752479700918506d0
H1       0.566364147807249d0     0.501019299582191d0     0.745008833426664d0
H1       0.287735589057556d0     0.435324748447197d0     0.792764784195700d0
O1       0.014990667341552d0     0.489227888707542d0     0.688367475933660d0
K_POINTS automatic
4 4 1  0 0 0 
