&CONTROL
  calculation='relax',
  prefix='calc',
  pseudo_dir='/storage/coda1/p-amedford6/0/shared/rich_project_chbe-medford/medford-share/data/pseudos_module/espresso/nninc/pbe/van',
  outdir='.',
  tefield=.true.,
  dipfield=.true.,
  tprnfor=.true.,
  disk_io='none',
/
&SYSTEM
  ibrav=0,
  celldm(1)=1.8897261245650618d0,
  nat=55,
  ntyp=5,
  ecutwfc=29.39945797996531d00,
  ecutrho=293.9945797996531d00,
  nbnd=211,
  occupations='smearing',
  smearing='fd',
  degauss=0.007349864494991328d00,
  input_dft='BEEF-vdW',
  edir=3,
  emaxpos=0.9845872388330528d00,
  eopreg=0.025d00,
  eamp=0.0d00,
  nosym=.false.,
  noinv=.false.,
  nosym_evc=.false.,
  no_t_rev=.false.,
/
&ELECTRONS
  diagonalization='david',
  conv_thr=7.349864494991327e-08,
  mixing_beta=0.05d00,
  electron_maxstep=1000,
  startingwfc='atomic',
/
&IONS
  ion_dynamics='ipi',
/
&CELL
  cell_dynamics='ipi',
/
CELL_PARAMETERS alat
    6.579727202290808d0     0.000000000000000d0     0.000000000000000d0
   -0.000775132442404d0     5.961596420607155d0     0.000000000000000d0
    0.000000000000000d0    -0.000000000000000d0    25.155947251439940d0
ATOMIC_SPECIES
Ti1 47.867d00 Ti.UPF
O1 15.999d00 O.UPF
C1 12.011d00 C.UPF
H1 1.008d00 H.UPF
N1 14.007d00 N.UPF
ATOMIC_POSITIONS {crystal}
Ti1      0.000123603383822d0     0.499897385958537d0     0.238512187198856d0
Ti1      0.500142521004230d0     0.250038178055688d0     0.238522014307695d0
O1       0.000095322930372d0     0.000084774873452d0     0.317452257936818d0
O1       0.500112315057126d0     0.000084209992886d0     0.290342007718641d0
O1       0.698270105622955d0     0.250236102495782d0     0.369213011426276d0
O1       0.301995368073695d0     0.249987007385122d0     0.369214717028816d0
Ti1      0.506604017162210d0     0.499229267026220d0     0.363945630464378d0
Ti1      0.008088751481265d0     0.250855300616466d0     0.368201650758430d0
O1       0.490513981367954d0     0.997337628747437d0     0.450526960004103d0
O1       0.999893675121531d0     0.999564529666140d0     0.420711338300410d0
O1       0.186509934935189d0     0.247987967589916d0     0.502964964589430d0
O1       0.793918125181906d0     0.246761790135329d0     0.500878442452251d0
Ti1      0.991368847170776d0     0.495825865502264d0     0.497972543886830d0
Ti1      0.493324567230088d0     0.245295431600038d0     0.496022091278194d0
O1       0.980000465463836d0     0.994819599937815d0     0.581992792487309d0
O1       0.490931167417969d0     0.995728548207660d0     0.554669770383143d0
O1       0.669738011880990d0     0.254366596462337d0     0.641321069477957d0
O1       0.286089537183293d0     0.251498797746092d0     0.640014963952053d0
Ti1      0.477338625713889d0     0.497773105651557d0     0.623740526485315d0
Ti1      0.981374772081811d0     0.225019491896013d0     0.631607851609577d0
O1       0.500093721748991d0     0.000084921243389d0     0.186906639369252d0
O1       0.975447627882875d0     0.003012346689916d0     0.682387230132438d0
O1       0.198268504441574d0     0.250236248865719d0     0.238667392858710d0
O1       0.801993766892314d0     0.249987153755059d0     0.238669098461250d0
Ti1      0.000123603383822d0     0.999897385958537d0     0.238512187198856d0
Ti1      0.500142521004230d0     0.750038178055688d0     0.238522014307695d0
O1       0.000095322930372d0     0.500084774873452d0     0.317452257936818d0
O1       0.500112315057126d0     0.500084209992886d0     0.290342007718641d0
O1       0.698270105622955d0     0.750236102495782d0     0.369213011426276d0
O1       0.301995368073695d0     0.749987007385122d0     0.369214717028816d0
Ti1      0.505450403119500d0     0.999471431590651d0     0.363733528100340d0
Ti1      0.008150592142449d0     0.748349989659983d0     0.368218030383062d0
O1       0.492673272196427d0     0.495923392459260d0     0.450329078895751d0
O1       0.997938217726303d0     0.498266999597262d0     0.421766561091480d0
O1       0.186784814031821d0     0.745945861081382d0     0.502069814425309d0
O1       0.793738231892373d0     0.747211171229054d0     0.500276401839656d0
Ti1      0.993472049065793d0     0.995189756612922d0     0.495280084973875d0
Ti1      0.493776199343970d0     0.745421181671147d0     0.495324869005690d0
O1       0.974544445878801d0     0.502787438768298d0     0.589847309429527d0
O1       0.489574527246580d0     0.498194169243111d0     0.552720816782703d0
O1       0.663337461985467d0     0.743319128291553d0     0.643362836520019d0
O1       0.283027112236584d0     0.745223269920728d0     0.640140191905168d0
Ti1      0.482131934136695d0     0.997853949095804d0     0.625555891448252d0
Ti1      0.984764737398424d0     0.764171826196905d0     0.632116720808826d0
O1       0.500093721748991d0     0.500084921243389d0     0.186906639369252d0
O1       0.198268504441574d0     0.750236248865719d0     0.238667392858710d0
O1       0.801993766892315d0     0.749987153755059d0     0.238669098461250d0
C1       0.014640966160924d0     0.568242330610924d0     0.758446275760122d0
O1       0.944592357129017d0     0.520105265502770d0     0.704957600550386d0
H1       0.171005901744555d0     0.625860138561287d0     0.755362202616162d0
H1       0.796641199475943d0     0.513180794856776d0     0.705403297497745d0
H1       0.922385303565682d0     0.700811597435728d0     0.775551302765153d0
H1       0.006272116541246d0     0.415537901816576d0     0.782267838296853d0
N1       0.452550443899245d0     0.030442136663856d0     0.774451811010728d0
N1       0.445936436972728d0     0.208095791586245d0     0.762209524209237d0
K_POINTS automatic
4 4 1  0 0 0 
