&CONTROL
  calculation='relax',
  prefix='calc',
  pseudo_dir='/storage/coda1/p-amedford6/0/shared/rich_project_chbe-medford/medford-share/data/pseudos_module/espresso/nninc/pbe/van',
  outdir='.',
  tefield=.true.,
  dipfield=.true.,
  tprnfor=.true.,
  disk_io='none',
/
&SYSTEM
  ibrav=0,
  celldm(1)=1.8897261245650618d0,
  nat=55,
  ntyp=5,
  ecutwfc=29.39945797996531d00,
  ecutrho=293.9945797996531d00,
  nbnd=211,
  occupations='smearing',
  smearing='fd',
  degauss=0.007349864494991328d00,
  input_dft='BEEF-vdW',
  edir=3,
  emaxpos=0.9858040573201571d00,
  eopreg=0.025d00,
  eamp=0.0d00,
  nosym=.false.,
  noinv=.false.,
  nosym_evc=.false.,
  no_t_rev=.false.,
/
&ELECTRONS
  diagonalization='david',
  conv_thr=7.349864494991327e-08,
  mixing_beta=0.05d00,
  electron_maxstep=1000,
  startingwfc='atomic',
/
&IONS
  ion_dynamics='ipi',
/
&CELL
  cell_dynamics='ipi',
/
CELL_PARAMETERS alat
    6.579727202290808d0     0.000000000000000d0     0.000000000000000d0
   -0.000775132442404d0     5.961596420607155d0     0.000000000000000d0
    0.000000000000000d0    -0.000000000000000d0    25.155947251439940d0
ATOMIC_SPECIES
Ti1 47.867d00 Ti.UPF
O1 15.999d00 O.UPF
C1 12.011d00 C.UPF
H1 1.008d00 H.UPF
N1 14.007d00 N.UPF
ATOMIC_POSITIONS {crystal}
Ti1      0.000123603383822d0     0.499897385958537d0     0.238512187198856d0
Ti1      0.500142521004230d0     0.250038178055688d0     0.238522014307695d0
O1       0.000095322930372d0     0.000084774873452d0     0.317452257936818d0
O1       0.500112315057126d0     0.000084209992886d0     0.290342007718641d0
O1       0.698270105622955d0     0.250236102495782d0     0.369213011426276d0
O1       0.301995368073695d0     0.249987007385122d0     0.369214717028816d0
Ti1      0.498313221144081d0     0.500750615386476d0     0.363957518791548d0
Ti1      0.002770947576401d0     0.247055255176028d0     0.368211724736306d0
O1       0.509759766240744d0     0.995806563282167d0     0.452253287396165d0
O1       0.002595539407397d0     0.998562901116972d0     0.421919371933064d0
O1       0.206111617571164d0     0.245633925488283d0     0.502553115556352d0
O1       0.814868214786279d0     0.245616095425660d0     0.504091838546986d0
Ti1      0.006271145275259d0     0.496522382576561d0     0.498295235328608d0
Ti1      0.506657441493982d0     0.245830105581716d0     0.497496916881181d0
O1       0.021097030577123d0     0.992662039707349d0     0.584599771897949d0
O1       0.509550133744499d0     0.995139146135618d0     0.556697728053966d0
O1       0.712208218476088d0     0.244978281608664d0     0.642993638863924d0
O1       0.330451902550028d0     0.247792039360199d0     0.644953796615333d0
Ti1      0.521787647819696d0     0.492892097757863d0     0.625809506945534d0
Ti1      0.017548031729445d0     0.218316016368956d0     0.636064476051749d0
O1       0.500093721748991d0     0.000084921243389d0     0.186906639369252d0
O1       0.019786770428213d0     0.991654724192573d0     0.685133245752508d0
O1       0.198268504441574d0     0.250236248865719d0     0.238667392858710d0
O1       0.801993766892314d0     0.249987153755059d0     0.238669098461250d0
Ti1      0.000123603383822d0     0.999897385958537d0     0.238512187198856d0
Ti1      0.500142521004230d0     0.750038178055688d0     0.238522014307695d0
O1       0.000095322930372d0     0.500084774873452d0     0.317452257936818d0
O1       0.500112315057126d0     0.500084209992886d0     0.290342007718641d0
O1       0.698270105622955d0     0.750236102495782d0     0.369213011426276d0
O1       0.301995368073695d0     0.749987007385122d0     0.369214717028816d0
Ti1      0.505887461119368d0     0.000944432205915d0     0.363881417786310d0
Ti1      0.002364616233055d0     0.745663405437343d0     0.368553727124248d0
O1       0.508150958022086d0     0.496350515270147d0     0.451968755771997d0
O1       0.001911703328284d0     0.498586361287846d0     0.422659117227274d0
O1       0.206120599651839d0     0.745140667387544d0     0.502581153777423d0
O1       0.814426840807359d0     0.745637196031251d0     0.504083414544116d0
Ti1      0.008230608862393d0     0.996666206636078d0     0.496409363309226d0
Ti1      0.505788764303367d0     0.745441475639002d0     0.497645217414880d0
O1       0.019865985835019d0     0.493253761217168d0     0.592650351830129d0
O1       0.511484208817540d0     0.494597942312361d0     0.554898155170987d0
O1       0.712446055784423d0     0.740992978590014d0     0.642531733679363d0
O1       0.330987656440589d0     0.737932061724900d0     0.644658999680931d0
Ti1      0.516195618934498d0     0.993337220519339d0     0.627918150988419d0
Ti1      0.015830152535665d0     0.757144559333297d0     0.633105845748333d0
O1       0.500093721748991d0     0.500084921243389d0     0.186906639369252d0
O1       0.198268504441574d0     0.750236248865719d0     0.238667392858710d0
O1       0.801993766892315d0     0.749987153755059d0     0.238669098461250d0
C1       0.946693174186955d0     0.513175611040746d0     0.755815926082798d0
O1       0.046621990707492d0     0.495925609254890d0     0.704580030111530d0
H1       0.792691321512396d0     0.451423133391403d0     0.750541268154928d0
H1       0.193016182180506d0     0.501185346220989d0     0.709459124163335d0
H1       0.027819501846238d0     0.410152755539036d0     0.784701475271062d0
H1       0.946566757045778d0     0.688534467758745d0     0.767809599720166d0
N1       0.507687447222610d0     0.995345401967141d0     0.777481235090847d0
N1       0.467398897483867d0     0.816489228599267d0     0.772654076875888d0
K_POINTS automatic
4 4 1  0 0 0 
