&CONTROL
  calculation='relax',
  prefix='calc',
  pseudo_dir='/storage/coda1/p-amedford6/0/shared/rich_project_chbe-medford/medford-share/data/pseudos_module/espresso/nninc/pbe/van',
  outdir='.',
  tefield=.true.,
  dipfield=.true.,
  tprnfor=.true.,
  disk_io='none',
/
&SYSTEM
  ibrav=0,
  celldm(1)=1.8897261245650618d0,
  nat=49,
  ntyp=4,
  ecutwfc=29.39945797996531d00,
  ecutrho=293.9945797996531d00,
  nbnd=201,
  occupations='smearing',
  smearing='fd',
  degauss=0.007349864494991328d00,
  input_dft='BEEF-vdW',
  edir=3,
  emaxpos=0.9630101971795879d00,
  eopreg=0.025d00,
  eamp=0.0d00,
  nosym=.false.,
  noinv=.false.,
  nosym_evc=.false.,
  no_t_rev=.false.,
/
&ELECTRONS
  diagonalization='david',
  conv_thr=7.349864494991327e-08,
  mixing_beta=0.05d00,
  electron_maxstep=1000,
  startingpot='file',
  startingwfc='atomic',
/
&IONS
  ion_dynamics='ipi',
/
&CELL
  cell_dynamics='ipi',
/
CELL_PARAMETERS alat
    6.579727202290808d0     0.000000000000000d0     0.000000000000000d0
   -0.000775132442404d0     5.961596420607155d0     0.000000000000000d0
    0.000000000000000d0    -0.000000000000000d0    25.155947251439940d0
ATOMIC_SPECIES
Ti1 47.867d00 Ti.UPF
O1 15.999d00 O.UPF
C1 12.011d00 C.UPF
H1 1.008d00 H.UPF
ATOMIC_POSITIONS {crystal}
Ti1      0.000123603383822d0     0.499897385958537d0     0.238512187198856d0
Ti1      0.500142521004230d0     0.250038178055688d0     0.238522014307695d0
O1       0.000095322930372d0     0.000084774873452d0     0.317452257936818d0
O1       0.500112315057126d0     0.000084209992886d0     0.290342007718641d0
O1       0.698270105622955d0     0.250236102495782d0     0.369213011426276d0
O1       0.301995368073695d0     0.249987007385122d0     0.369214717028816d0
Ti1      0.500409421173949d0     0.480714370307462d0     0.364322959936336d0
Ti1      0.001144411927866d0     0.251341868796028d0     0.372999231982084d0
O1       0.499147585929059d0     0.001179518670421d0     0.451272052694954d0
O1       0.000159463780378d0     0.000723182241695d0     0.419702739001509d0
O1       0.193605681791337d0     0.253692608859221d0     0.502808275457474d0
O1       0.799915551769191d0     0.253033083463657d0     0.502070638062213d0
Ti1      0.012204827266201d0     0.501292256121786d0     0.510963106312125d0
Ti1      0.516193177125465d0     0.249933005981796d0     0.496625998332713d0
O1       0.998196507068250d0     0.999867786066042d0     0.580599677378873d0
O1       0.498195747086661d0     0.004399720892098d0     0.554363380905233d0
O1       0.684667855859886d0     0.260410438315865d0     0.640254260904459d0
O1       0.308979800033429d0     0.259703272392520d0     0.639983840670665d0
Ti1      0.495353739149682d0     0.507563746452157d0     0.625137463457226d0
Ti1      0.994650587297340d0     0.267063382559506d0     0.642611128001610d0
O1       0.500093721748991d0     0.000084921243389d0     0.186906639369252d0
O1       0.996660126733935d0     0.009522275424394d0     0.685535464859568d0
O1       0.198268504441574d0     0.250236248865719d0     0.238667392858710d0
O1       0.801993766892314d0     0.249987153755059d0     0.238669098461250d0
Ti1      0.000123603383822d0     0.999897385958537d0     0.238512187198856d0
Ti1      0.500142521004230d0     0.750038178055688d0     0.238522014307695d0
O1       0.000095322930372d0     0.500084774873452d0     0.317452257936818d0
O1       0.500112315057126d0     0.500084209992886d0     0.290342007718641d0
O1       0.698270105622955d0     0.750236102495782d0     0.369213011426276d0
O1       0.301995368073695d0     0.749987007385122d0     0.369214717028816d0
Ti1      0.501061562932563d0     0.980919742751103d0     0.364322022742228d0
Ti1      0.001407920329021d0     0.750775708120558d0     0.372827654961870d0
O1       0.499384339743551d0     0.500718962783568d0     0.450989457658281d0
O1       0.000127386279295d0     0.500481579997825d0     0.419622448366151d0
O1       0.193892853788734d0     0.749170100042488d0     0.502714487309099d0
O1       0.799708559782056d0     0.749986501750040d0     0.501921449804620d0
Ti1      0.009881404690244d0     0.001212313229989d0     0.508973562982601d0
Ti1      0.516103291261812d0     0.749488723865423d0     0.496345067913942d0
O1       0.998594089798639d0     0.502266632450828d0     0.584317824443662d0
O1       0.498176388950872d0     0.504216850052960d0     0.553754704410169d0
O1       0.684590432811174d0     0.757608631208506d0     0.640211847446875d0
O1       0.309172403621035d0     0.757864544964659d0     0.640006510354629d0
Ti1      0.495195156086633d0     0.007398560993735d0     0.625959323708075d0
Ti1      0.993955851281254d0     0.774340460822724d0     0.642373306989560d0
O1       0.500093721748991d0     0.500084921243389d0     0.186906639369252d0
O1       0.198268504441574d0     0.750236248865719d0     0.238667392858710d0
O1       0.801993766892315d0     0.749987153755059d0     0.238669098461250d0
C1       0.998124982260083d0     0.507833042718094d0     0.696232935056898d0
H1       0.000618975756927d0     0.533154827501101d0     0.739113754989923d0
K_POINTS automatic
4 4 1  0 0 0 
