&CONTROL
  calculation='relax',
  prefix='calc',
  pseudo_dir='/storage/coda1/p-amedford6/0/shared/rich_project_chbe-medford/medford-share/data/pseudos_module/espresso/nninc/pbe/van',
  outdir='.',
  tefield=.true.,
  dipfield=.true.,
  tprnfor=.true.,
  disk_io='none',
/
&SYSTEM
  ibrav=0,
  celldm(1)=1.8897261245650618d0,
  nat=53,
  ntyp=5,
  ecutwfc=29.39945797996531d00,
  ecutrho=293.9945797996531d00,
  nbnd=208,
  occupations='smearing',
  smearing='fd',
  degauss=0.007349864494991328d00,
  input_dft='BEEF-vdW',
  edir=3,
  emaxpos=0.9949378072508268d00,
  eopreg=0.025d00,
  eamp=0.0d00,
  nosym=.false.,
  noinv=.false.,
  nosym_evc=.false.,
  no_t_rev=.false.,
/
&ELECTRONS
  diagonalization='david',
  conv_thr=7.349864494991327e-08,
  mixing_beta=0.05d00,
  electron_maxstep=1000,
  startingpot='file',
  startingwfc='atomic',
/
&IONS
  ion_dynamics='ipi',
/
&CELL
  cell_dynamics='ipi',
/
CELL_PARAMETERS alat
    6.579727202290808d0     0.000000000000000d0     0.000000000000000d0
   -0.000775132442404d0     5.961596420607155d0     0.000000000000000d0
    0.000000000000000d0    -0.000000000000000d0    25.155947251439940d0
ATOMIC_SPECIES
O1 15.999d00 O.UPF
Ti1 47.867d00 Ti.UPF
C1 12.011d00 C.UPF
H1 1.008d00 H.UPF
N1 14.007d00 N.UPF
ATOMIC_POSITIONS {crystal}
O1       0.500093721748991d0     0.000084921243389d0     0.186906639369252d0
O1       0.500093721748991d0     0.500084921243389d0     0.186906639369252d0
Ti1      0.000123603383822d0     0.499897385958536d0     0.238512187198856d0
Ti1      0.000123603383822d0     0.999897385958536d0     0.238512187198856d0
Ti1      0.500142521004230d0     0.250038178055688d0     0.238522014307695d0
Ti1      0.500142521004230d0     0.750038178055688d0     0.238522014307695d0
O1       0.198268504441574d0     0.250236248865719d0     0.238667392858710d0
O1       0.198268504441574d0     0.750236248865719d0     0.238667392858710d0
O1       0.801993766892314d0     0.249987153755059d0     0.238669098461250d0
O1       0.801993766892315d0     0.749987153755059d0     0.238669098461250d0
O1       0.500112315057126d0     0.000084209992886d0     0.290342007718641d0
O1       0.500112315057126d0     0.500084209992886d0     0.290342007718641d0
O1       0.000095322930372d0     0.000084774873452d0     0.317452257936818d0
O1       0.000095322930372d0     0.500084774873452d0     0.317452257936818d0
Ti1      0.500198167309398d0     0.485761668506182d0     0.364758343030283d0
Ti1      0.500001644927041d0     0.985370751416071d0     0.364779031055315d0
Ti1      0.000261424674789d0     0.248709163236136d0     0.368424970923767d0
Ti1      0.000183276761494d0     0.748948988039575d0     0.368476322807288d0
O1       0.698270105622955d0     0.250236102495782d0     0.369213011426276d0
O1       0.698270105622955d0     0.750236102495782d0     0.369213011426276d0
O1       0.301995368073695d0     0.249987007385122d0     0.369214717028816d0
O1       0.301995368073695d0     0.749987007385122d0     0.369214717028816d0
O1       0.001882992193933d0     0.999479849154423d0     0.422099495650131d0
O1       0.001460782485842d0     0.499964783615161d0     0.422656139091726d0
O1       0.501338660250676d0     0.496605813953577d0     0.451700558496712d0
O1       0.501206269066072d0     0.996680209499756d0     0.451863316486417d0
Ti1      0.504572958837121d0     0.245692010233932d0     0.497641705968011d0
Ti1      0.504628063317938d0     0.745480649274297d0     0.497594758346330d0
Ti1      0.003873524499622d0     0.996248221281538d0     0.497101220661641d0
Ti1      0.003217908281268d0     0.495660046983572d0     0.498195162917555d0
O1       0.805451019285092d0     0.247199695405107d0     0.503185313549922d0
O1       0.805397579153575d0     0.747058672987864d0     0.503216014558885d0
O1       0.197313385411356d0     0.247169879535747d0     0.503421575567402d0
O1       0.197417197332683d0     0.747103109115289d0     0.503457522900014d0
O1       0.501656503958067d0     0.496400990098822d0     0.554827330144941d0
O1       0.502484042921037d0     0.996504371072825d0     0.555882724143258d0
O1       0.000817533834575d0     0.993887213222369d0     0.585586498528202d0
O1       0.000151639637280d0     0.496104684790819d0     0.590729871491543d0
Ti1      0.500404842460989d0     0.494491583293317d0     0.625990078857565d0
Ti1      0.503127143323690d0     0.994655192624166d0     0.627232512823705d0
Ti1      0.004537481041425d0     0.749023150824536d0     0.631399856718705d0
Ti1      0.003111386580640d0     0.217789060014135d0     0.638148217831898d0
O1       0.308796072958349d0     0.743323639739888d0     0.642330714962953d0
O1       0.308996020337088d0     0.246283397808321d0     0.642334096110152d0
O1       0.689956363730692d0     0.246713592383612d0     0.642968352811119d0
O1       0.690871566597357d0     0.742834826871985d0     0.642776469086798d0
O1       0.997528084021637d0     0.998411925317467d0     0.687693896695638d0
C1       0.927085825478715d0     0.517209636199137d0     0.745007124006084d0
H1       0.928176104496033d0     0.855949737954634d0     0.743268747835735d0
H1       0.884862620591881d0     0.367884267872763d0     0.767907370998588d0
N1       0.899461265761010d0     0.716351385992910d0     0.767359542142066d0
H1       0.831209346035010d0     0.727925209220037d0     0.802968975132401d0
O1       0.995364577517368d0     0.496047756944546d0     0.698902291079140d0
K_POINTS automatic
4 4 1  0 0 0 
