&CONTROL
  calculation='relax',
  prefix='calc',
  pseudo_dir='/storage/coda1/p-amedford6/0/shared/rich_project_chbe-medford/medford-share/data/pseudos_module/espresso/nninc/pbe/van',
  outdir='.',
  tefield=.true.,
  dipfield=.true.,
  tprnfor=.true.,
  disk_io='none',
/
&SYSTEM
  ibrav=0,
  celldm(1)=1.8897261245650618d0,
  nat=52,
  ntyp=5,
  ecutwfc=29.39945797996531d00,
  ecutrho=293.9945797996531d00,
  nbnd=207,
  occupations='smearing',
  smearing='fd',
  degauss=0.007349864494991328d00,
  input_dft='BEEF-vdW',
  edir=3,
  emaxpos=0.979424959142933d00,
  eopreg=0.025d00,
  eamp=0.0d00,
  nosym=.false.,
  noinv=.false.,
  nosym_evc=.false.,
  no_t_rev=.false.,
/
&ELECTRONS
  diagonalization='david',
  conv_thr=7.349864494991327e-08,
  mixing_beta=0.05d00,
  electron_maxstep=1000,
  startingpot='file',
  startingwfc='atomic',
/
&IONS
  ion_dynamics='ipi',
/
&CELL
  cell_dynamics='ipi',
/
CELL_PARAMETERS alat
    6.579727202290808d0     0.000000000000000d0     0.000000000000000d0
   -0.000775132442404d0     5.961596420607155d0     0.000000000000000d0
    0.000000000000000d0    -0.000000000000000d0    25.155947251439940d0
ATOMIC_SPECIES
Ti1 47.867d00 Ti.UPF
O1 15.999d00 O.UPF
N1 14.007d00 N.UPF
C1 12.011d00 C.UPF
H1 1.008d00 H.UPF
ATOMIC_POSITIONS {crystal}
Ti1      0.000123603383822d0     0.499897385958536d0     0.238512187198856d0
Ti1      0.500142521004230d0     0.250038178055688d0     0.238522014307695d0
O1       0.000095322930372d0     0.000084774873452d0     0.317452257936818d0
O1       0.500112315057126d0     0.000084209992886d0     0.290342007718641d0
O1       0.698270105622955d0     0.250236102495782d0     0.369213011426276d0
O1       0.301995368073695d0     0.249987007385122d0     0.369214717028816d0
Ti1      0.500198167309398d0     0.485761668506182d0     0.364758343030283d0
Ti1      0.000261424674789d0     0.248709163236136d0     0.368424970923767d0
O1       0.500927809134802d0     0.006639069836184d0     0.451209632395086d0
O1       0.001882992193933d0     0.999479849154423d0     0.422099495650131d0
O1       0.194392735350507d0     0.254169161406116d0     0.504159909395156d0
O1       0.807328296229175d0     0.254648990861041d0     0.503940682667973d0
Ti1      0.996537028872997d0     0.496758600228411d0     0.497877084405389d0
Ti1      0.500915548492919d0     0.266106204956685d0     0.494978778751599d0
O1       0.003953820392765d0     0.990759821588115d0     0.583058025056811d0
O1       0.502596402982077d0     0.991917403094768d0     0.555577390172344d0
O1       0.691448267817736d0     0.260226461958908d0     0.640452840751718d0
O1       0.306342242135852d0     0.260517333613197d0     0.639520933459550d0
Ti1      0.498156881616655d0     0.501487121048424d0     0.624194293048531d0
Ti1      0.007326270333268d0     0.229715353962865d0     0.627615730100190d0
O1       0.500093721748991d0     0.000084921243389d0     0.186906639369252d0
O1       0.998939939587851d0     0.017829668440620d0     0.682703607703987d0
O1       0.198268504441574d0     0.250236248865719d0     0.238667392858710d0
O1       0.801993766892314d0     0.249987153755059d0     0.238669098461250d0
Ti1      0.000123603383822d0     0.999897385958536d0     0.238512187198856d0
Ti1      0.500142521004230d0     0.750038178055688d0     0.238522014307695d0
O1       0.000095322930372d0     0.500084774873452d0     0.317452257936818d0
O1       0.500112315057126d0     0.500084209992886d0     0.290342007718641d0
O1       0.698270105622955d0     0.750236102495782d0     0.369213011426276d0
O1       0.301995368073695d0     0.749987007385122d0     0.369214717028816d0
Ti1      0.500001644927041d0     0.985370751416071d0     0.364779031055315d0
Ti1      0.000183276761494d0     0.748948988039575d0     0.368476322807288d0
O1       0.501069832857191d0     0.496487707816448d0     0.449890894428107d0
O1       0.001460782485842d0     0.499964783615161d0     0.422656139091726d0
O1       0.194997039794851d0     0.752260250383464d0     0.502878466288867d0
O1       0.808460422926594d0     0.752381194316302d0     0.502777203576836d0
Ti1      0.007491497994021d0     0.994047683291528d0     0.497002108734929d0
Ti1      0.503325646681845d0     0.784661330229681d0     0.505213368347673d0
O1       0.996840115971026d0     0.508847819056745d0     0.592612373071060d0
O1       0.501030339047755d0     0.504296444033598d0     0.553809307923751d0
O1       0.690594754137380d0     0.746096106639252d0     0.643874388893779d0
O1       0.306049883157481d0     0.744180384525355d0     0.643852413841048d0
Ti1      0.512267301537749d0     0.004879458090356d0     0.650063194400291d0
Ti1      0.008304214761488d0     0.770313751838774d0     0.638007476563359d0
O1       0.500093721748991d0     0.500084921243389d0     0.186906639369252d0
O1       0.198268504441574d0     0.750236248865719d0     0.238667392858710d0
O1       0.801993766892315d0     0.749987153755059d0     0.238669098461250d0
N1       0.999416294556885d0     0.537307883577298d0     0.714684574087365d0
C1       0.995051391246515d0     0.393251211268331d0     0.745108608120179d0
H1       0.990818921238856d0     0.255039239888447d0     0.771943278916614d0
O1       0.504325196880420d0     0.019225033517203d0     0.724053741977104d0
H1       0.496881870460861d0     0.876839104712190d0     0.741994153975089d0
K_POINTS automatic
4 4 1  0 0 0 
