&CONTROL
  calculation='relax',
  prefix='calc',
  pseudo_dir='/storage/coda1/p-amedford6/0/shared/rich_project_chbe-medford/medford-share/data/pseudos_module/espresso/nninc/pbe/van',
  outdir='.',
  tefield=.true.,
  dipfield=.true.,
  tprnfor=.true.,
  disk_io='none',
/
&SYSTEM
  ibrav=0,
  celldm(1)=1.8897261245650618d0,
  nat=55,
  ntyp=4,
  ecutwfc=29.39945797996531d00,
  ecutrho=293.9945797996531d00,
  nbnd=207,
  occupations='smearing',
  smearing='fd',
  degauss=0.007349864494991328d00,
  input_dft='BEEF-vdW',
  edir=3,
  emaxpos=0.020659573647324514d00,
  eopreg=0.025d00,
  eamp=0.0d00,
  nosym=.false.,
  noinv=.false.,
  nosym_evc=.false.,
  no_t_rev=.false.,
/
&ELECTRONS
  diagonalization='david',
  conv_thr=7.349864494991327e-08,
  mixing_beta=0.05d00,
  electron_maxstep=1000,
  startingpot='file',
  startingwfc='atomic',
/
&IONS
  ion_dynamics='ipi',
/
&CELL
  cell_dynamics='ipi',
/
CELL_PARAMETERS alat
    6.579727202290808d0     0.000000000000000d0     0.000000000000000d0
   -0.000775132442404d0     5.961596420607155d0     0.000000000000000d0
    0.000000000000000d0    -0.000000000000000d0    25.155947251439937d0
ATOMIC_SPECIES
Ti1 47.867d00 Ti.UPF
O1 15.999d00 O.UPF
N1 14.007d00 N.UPF
H1 1.008d00 H.UPF
ATOMIC_POSITIONS {crystal}
Ti1      0.000123603383822d0     0.499897385958537d0     0.238512187198856d0
Ti1      0.500142521004230d0     0.250038178055688d0     0.238522014307695d0
O1       0.000095322930372d0     0.000084774873452d0     0.317452257936818d0
O1       0.500112315057126d0     0.000084209992886d0     0.290342007718641d0
O1       0.698270105622955d0     0.250236102495782d0     0.369213011426276d0
O1       0.301995368073694d0     0.249987007385122d0     0.369214717028816d0
Ti1      0.500158505070872d0     0.500155774594832d0     0.364163076180906d0
Ti1      0.000162087224484d0     0.249991612066862d0     0.368023555011392d0
O1       0.500102782809291d0     0.996238949179569d0     0.452459358334340d0
O1       0.000117595493620d0     0.998808974983474d0     0.421955824114029d0
O1       0.195844842556510d0     0.248082126222034d0     0.502927659275113d0
O1       0.804336219928182d0     0.248060828883197d0     0.502924845314333d0
Ti1      0.000145477105231d0     0.496999291910897d0     0.496801982962972d0
Ti1      0.500107636371920d0     0.247338429497112d0     0.497717298014197d0
O1       0.000067749771561d0     0.006512333253051d0     0.584593103924269d0
O1       0.500099414217761d0     0.997473525350905d0     0.556677943893801d0
O1       0.691129518105628d0     0.244385599860006d0     0.644837729937933d0
O1       0.308998984889796d0     0.244377856993650d0     0.644831636195986d0
Ti1      0.500068801030264d0     0.492459095731291d0     0.626402035312598d0
Ti1      0.000103242692767d0     0.240036287248178d0     0.636580013096332d0
O1       0.500093721748991d0     0.000084921243389d0     0.186906639369252d0
O1       0.000061038649734d0     0.971032797291198d0     0.686208879356423d0
O1       0.198268504441573d0     0.250236248865719d0     0.238667392858710d0
O1       0.801993766892314d0     0.249987153755059d0     0.238669098461250d0
Ti1      0.000123603383822d0     0.999897385958537d0     0.238512187198856d0
Ti1      0.500142521004230d0     0.750038178055688d0     0.238522014307695d0
O1       0.000095322930372d0     0.500084774873452d0     0.317452257936818d0
O1       0.500112315057126d0     0.500084209992886d0     0.290342007718641d0
O1       0.698270105622955d0     0.750236102495782d0     0.369213011426276d0
O1       0.301995368073694d0     0.749987007385122d0     0.369214717028816d0
Ti1      0.500156890730762d0     0.000157772383712d0     0.364094566240812d0
Ti1      0.000162483947971d0     0.750224524806221d0     0.368020999893661d0
O1       0.500102859935961d0     0.498308291645925d0     0.452140700731767d0
O1       0.000117573079911d0     0.499833306471564d0     0.422461972751751d0
O1       0.195548034227625d0     0.746644865295699d0     0.504140797425220d0
O1       0.804631459226197d0     0.746626273429541d0     0.504136849998931d0
Ti1      0.000137698745320d0     0.998005062272917d0     0.496560215595104d0
Ti1      0.500113021081313d0     0.746869137264665d0     0.498114777103814d0
O1       0.000061947168775d0     0.487224753493850d0     0.594229901622115d0
O1       0.500095783743475d0     0.493545503415781d0     0.555278555235895d0
O1       0.691087115044793d0     0.739282309672377d0     0.642399681068557d0
O1       0.309054581727173d0     0.739274461762221d0     0.642393395337623d0
Ti1      0.500096932850595d0     0.992635684611240d0     0.628018022317882d0
Ti1      0.000103607782316d0     0.776823961420739d0     0.632201506816112d0
O1       0.500093721748991d0     0.500084921243389d0     0.186906639369252d0
O1       0.198268504441573d0     0.750236248865719d0     0.238667392858710d0
O1       0.801993766892314d0     0.749987153755059d0     0.238669098461250d0
N1       0.999969595106868d0     0.426407726453102d0     0.718167381376065d0
H1       0.999855426627607d0     0.276928260169247d0     0.737706615133537d0
H1       0.123643762514380d0     0.513368422953404d0     0.730671794887937d0
H1       0.876114319086410d0     0.513332936951347d0     0.730594009062724d0
N1       0.000086850731329d0     0.816511571865258d0     0.815268668603556d0
H1       0.001274085697176d0     0.857567104217229d0     0.854412507925397d0
H1       0.122888134438733d0     0.891055673921291d0     0.798396751044656d0
H1       0.877206594278910d0     0.890410620334128d0     0.798285989390432d0
K_POINTS automatic
4 4 1  0 0 0 
