&CONTROL
  calculation='relax',
  prefix='calc',
  pseudo_dir='/storage/coda1/p-amedford6/0/shared/rich_project_chbe-medford/medford-share/data/pseudos_module/espresso/nninc/pbe/van',
  outdir='.',
  tefield=.true.,
  dipfield=.true.,
  tprnfor=.true.,
  disk_io='none',
/
&SYSTEM
  ibrav=0,
  celldm(1)=1.8897261245650618d0,
  nat=61,
  ntyp=4,
  ecutwfc=29.39945797996531d00,
  ecutrho=293.9945797996531d00,
  nbnd=231,
  occupations='smearing',
  smearing='fd',
  degauss=0.007349864494991328d00,
  input_dft='BEEF-vdW',
  edir=3,
  emaxpos=0.029749487886620685d00,
  eopreg=0.025d00,
  eamp=0.0d00,
  nosym=.false.,
  noinv=.false.,
  nosym_evc=.false.,
  no_t_rev=.false.,
/
&ELECTRONS
  diagonalization='david',
  conv_thr=7.349864494991327e-08,
  mixing_beta=0.05d00,
  electron_maxstep=1000,
  startingpot='file',
  startingwfc='atomic',
/
&IONS
  ion_dynamics='ipi',
/
&CELL
  cell_dynamics='ipi',
/
CELL_PARAMETERS alat
    6.579727202290808d0     0.000000000000000d0     0.000000000000000d0
   -0.001162698663605d0     8.942394630910734d0     0.000000000000000d0
    0.000000000000000d0    -0.000000000000000d0    25.155947251439940d0
ATOMIC_SPECIES
O1 15.999d00 O.UPF
Ti1 47.867d00 Ti.UPF
H1 1.008d00 H.UPF
N1 14.007d00 N.UPF
ATOMIC_POSITIONS {crystal}
O1       0.000111781329999d0     0.000056172521910d0     0.421099706309416d0
O1       0.500090093316816d0     0.999996460624928d0     0.551815071692173d0
O1       0.999816492730948d0     0.010151126406606d0     0.687696505040313d0
O1       0.000095322930372d0     0.000056516582301d0     0.317452257936818d0
O1       0.500084932050510d0     0.998330963217371d0     0.444696194056748d0
O1       0.000016998614203d0     0.004303222358278d0     0.579810914108858d0
O1       0.301995368073695d0     0.166658004923414d0     0.369214717028816d0
O1       0.796301071362493d0     0.181149047293158d0     0.500243419166109d0
O1       0.304696222569651d0     0.175030774342917d0     0.638625662936092d0
Ti1      0.000141987277103d0     0.166692151230444d0     0.369279712898471d0
Ti1      0.500093461831918d0     0.150693910019783d0     0.496042443849100d0
Ti1      0.000057262763519d0     0.144865191361424d0     0.627100797734655d0
O1       0.698270105622955d0     0.166824068330521d0     0.369213011426276d0
O1       0.203823271554352d0     0.181111324437921d0     0.500246305862229d0
O1       0.695308577673375d0     0.175016889609526d0     0.638619799738625d0
Ti1      0.500123069656695d0     0.333264956499010d0     0.369269885789632d0
Ti1      0.000105014165981d0     0.317922509082433d0     0.494006945539018d0
Ti1      0.499998144974358d0     0.320983246397596d0     0.623755279361436d0
O1       0.000111781329999d0     0.333389505855244d0     0.421099706309416d0
O1       0.500047602117331d0     0.330821844111613d0     0.552683543640018d0
O1       0.000095322930372d0     0.333389849915635d0     0.317452257936818d0
O1       0.500086325027031d0     0.332467652650337d0     0.444856508788867d0
O1       0.000077229263342d0     0.333328520135577d0     0.592584363596973d0
O1       0.301995368073695d0     0.499991338256748d0     0.369214717028816d0
O1       0.797723080883012d0     0.510383883127508d0     0.500990442894200d0
O1       0.305860138122691d0     0.505384976326286d0     0.637273740076070d0
Ti1      0.000141987277103d0     0.500025484563778d0     0.369279712898471d0
Ti1      0.500127827914293d0     0.485360022900015d0     0.497766265283199d0
Ti1      0.000235095575604d0     0.486616428631830d0     0.643541048662145d0
O1       0.698270105622955d0     0.500157401663855d0     0.369213011426276d0
O1       0.202452688494327d0     0.510370042482866d0     0.500990192024159d0
O1       0.694385647788856d0     0.505330170378741d0     0.637274726597247d0
Ti1      0.500123069656695d0     0.666598289832344d0     0.369269885789632d0
Ti1      0.000129859479790d0     0.648673124440212d0     0.496660348452337d0
Ti1      0.500301232834984d0     0.650034648338171d0     0.628514090408194d0
O1       0.000111781329999d0     0.666722839188577d0     0.421099706309416d0
O1       0.500119808999924d0     0.667510144124748d0     0.554081833638457d0
O1       0.000142273952606d0     0.669919807778825d0     0.687409584628502d0
O1       0.000095322930372d0     0.666723183248968d0     0.317452257936818d0
O1       0.500096510919566d0     0.663519784220871d0     0.445420468198204d0
O1       0.000128273505491d0     0.666957092460275d0     0.583174460997843d0
O1       0.301995368073695d0     0.833324671590081d0     0.369214717028816d0
O1       0.796517874139909d0     0.844691087558291d0     0.499882923480795d0
O1       0.302289965983008d0     0.847751720284768d0     0.636717801065931d0
Ti1      0.000141987277103d0     0.833358817897111d0     0.369279712898471d0
Ti1      0.500110139467981d0     0.813334815635596d0     0.498680520962867d0
Ti1      0.000176636485303d0     0.803933215155906d0     0.635163484459694d0
O1       0.698270105622955d0     0.833490734997188d0     0.369213011426276d0
O1       0.203637076116613d0     0.844678915714638d0     0.499889337374408d0
O1       0.697807517160061d0     0.847561610091958d0     0.636694869847108d0
Ti1      0.500123069656695d0     0.999931623165677d0     0.369269885789632d0
Ti1      0.000117968152014d0     0.981377405757587d0     0.494692195798412d0
Ti1      0.500161323820688d0     0.988029185059596d0     0.623427214608200d0
H1       0.000426658163755d0     0.004231855150317d0     0.725817304967594d0
N1       0.000065496377715d0     0.369307941110922d0     0.709296039884219d0
H1       0.999677218475516d0     0.261272664779572d0     0.721223344775113d0
H1       0.999894258858642d0     0.435243136061692d0     0.742046717836423d0
N1       0.500025794791490d0     0.669919428358096d0     0.721108917217115d0
H1       0.499978037391515d0     0.566508233893577d0     0.737711253213453d0
H1       0.373235987250163d0     0.724467194382258d0     0.733427477733982d0
H1       0.626719011830824d0     0.723405432794366d0     0.733488912575640d0
K_POINTS automatic
4 4 1  0 0 0 
