&CONTROL
  calculation='relax',
  prefix='calc',
  pseudo_dir='/storage/coda1/p-amedford6/0/shared/rich_project_chbe-medford/medford-share/data/pseudos_module/espresso/nninc/pbe/van',
  outdir='.',
  tefield=.true.,
  dipfield=.true.,
  tprnfor=.true.,
  disk_io='none',
/
&SYSTEM
  ibrav=0,
  celldm(1)=1.8897261245650618d0,
  nat=54,
  ntyp=4,
  ecutwfc=29.39945797996531d00,
  ecutrho=293.9945797996531d00,
  nbnd=206,
  occupations='smearing',
  smearing='fd',
  degauss=0.007349864494991328d00,
  input_dft='BEEF-vdW',
  edir=3,
  emaxpos=0.965535459054143d00,
  eopreg=0.025d00,
  eamp=0.0d00,
  nosym=.false.,
  noinv=.false.,
  nosym_evc=.false.,
  no_t_rev=.false.,
/
&ELECTRONS
  diagonalization='david',
  conv_thr=7.349864494991327e-08,
  mixing_beta=0.05d00,
  electron_maxstep=1000,
  startingwfc='atomic',
/
&IONS
  ion_dynamics='ipi',
/
&CELL
  cell_dynamics='ipi',
/
CELL_PARAMETERS alat
    6.579727202290808d0     0.000000000000000d0     0.000000000000000d0
   -0.000775132442404d0     5.961596420607155d0     0.000000000000000d0
    0.000000000000000d0    -0.000000000000000d0    25.155947251439940d0
ATOMIC_SPECIES
Ti1 47.867d00 Ti.UPF
O1 15.999d00 O.UPF
C1 12.011d00 C.UPF
H1 1.008d00 H.UPF
ATOMIC_POSITIONS {crystal}
Ti1      0.000123603383822d0     0.499897385958537d0     0.238512187198856d0
Ti1      0.500142521004230d0     0.250038178055688d0     0.238522014307695d0
O1       0.000095322930372d0     0.000084774873452d0     0.317452257936818d0
O1       0.500112315057126d0     0.000084209992886d0     0.290342007718641d0
O1       0.698270105622955d0     0.250236102495782d0     0.369213011426276d0
O1       0.301995368073695d0     0.249987007385122d0     0.369214717028816d0
Ti1      0.504647053700384d0     0.492846961625251d0     0.364316457804186d0
Ti1      0.004771829833524d0     0.265471113196949d0     0.371914436027324d0
O1       0.499402952918468d0     0.000445559018232d0     0.451488639329667d0
O1       0.000688024613716d0     0.000791965717367d0     0.420771365185578d0
O1       0.194011915060194d0     0.249594168624700d0     0.501798934883762d0
O1       0.802577088436495d0     0.250765406145909d0     0.501474224385604d0
Ti1      0.004487766837591d0     0.492954872532763d0     0.506389472106212d0
Ti1      0.507910660133856d0     0.248227316526357d0     0.497204311324091d0
O1       0.997187537453915d0     0.998749937400673d0     0.581020758082684d0
O1       0.498586516885849d0     0.001306525989413d0     0.555272701421554d0
O1       0.690080018630288d0     0.258756116565307d0     0.638048091056705d0
O1       0.305315870090789d0     0.257975060315779d0     0.637837150307209d0
Ti1      0.495900161647094d0     0.502303167046189d0     0.623763040111679d0
Ti1      0.993863996222925d0     0.249788602668414d0     0.641501766748169d0
O1       0.500093721748991d0     0.000084921243389d0     0.186906639369252d0
O1       0.997261403181384d0     0.000207406007674d0     0.682176339438774d0
O1       0.198268504441574d0     0.250236248865719d0     0.238667392858710d0
O1       0.801993766892314d0     0.249987153755059d0     0.238669098461250d0
Ti1      0.000123603383822d0     0.999897385958537d0     0.238512187198856d0
Ti1      0.500142521004230d0     0.750038178055688d0     0.238522014307695d0
O1       0.000095322930372d0     0.500084774873452d0     0.317452257936818d0
O1       0.500112315057126d0     0.500084209992886d0     0.290342007718641d0
O1       0.698270105622955d0     0.750236102495782d0     0.369213011426276d0
O1       0.301995368073695d0     0.749987007385122d0     0.369214717028816d0
Ti1      0.502515502199697d0     0.993370490281039d0     0.363887033766857d0
Ti1      0.004935872581920d0     0.757504154145526d0     0.368082412508732d0
O1       0.499286075461616d0     0.499229318498789d0     0.451176923343516d0
O1       0.000846376138284d0     0.500532355682476d0     0.420427827461049d0
O1       0.194179941693192d0     0.749089798329579d0     0.501458801162080d0
O1       0.802280570002773d0     0.749827236952434d0     0.501148491771254d0
Ti1      0.005891263053416d0     0.993824821508570d0     0.497089726672492d0
Ti1      0.508124075484862d0     0.749401338048456d0     0.496585049565584d0
O1       0.998914375209216d0     0.501277607977667d0     0.584238027236102d0
O1       0.498255146529351d0     0.501443579189978d0     0.552590959776958d0
O1       0.689898729225734d0     0.746751178356194d0     0.637921841806209d0
O1       0.304703919176401d0     0.747332895247155d0     0.637838154827046d0
Ti1      0.495129427084414d0     0.002514279889034d0     0.627909039395798d0
Ti1      0.995230126490954d0     0.773280644905881d0     0.628289060991396d0
O1       0.500093721748991d0     0.500084921243389d0     0.186906639369252d0
O1       0.198268504441574d0     0.750236248865719d0     0.238667392858710d0
O1       0.801993766892315d0     0.749987153755059d0     0.238669098461250d0
C1       0.998324156519360d0     0.480294866017805d0     0.709940126271595d0
H1       0.997851846881260d0     0.659554756424882d0     0.717739662732814d0
H1       0.134363949552856d0     0.412940589055586d0     0.729005350699736d0
H1       0.863987176537420d0     0.411877919051893d0     0.729709535421240d0
O1       0.495851093943825d0     0.019369062789101d0     0.723271575631390d0
H1       0.615659438704468d0     0.981382887493512d0     0.744164278739033d0
H1       0.375576896545632d0     0.982289992072674d0     0.744055629234454d0
K_POINTS automatic
4 4 1  0 0 0 
