&CONTROL
  calculation='relax',
  prefix='calc',
  pseudo_dir='/storage/coda1/p-amedford6/0/shared/rich_project_chbe-medford/medford-share/data/pseudos_module/espresso/nninc/pbe/van',
  outdir='.',
  tefield=.true.,
  dipfield=.true.,
  tprnfor=.true.,
  disk_io='none',
/
&SYSTEM
  ibrav=0,
  celldm(1)=1.8897261245650618d0,
  nat=52,
  ntyp=4,
  ecutwfc=29.39945797996531d00,
  ecutrho=293.9945797996531d00,
  nbnd=205,
  occupations='smearing',
  smearing='fd',
  degauss=0.007349864494991328d00,
  input_dft='BEEF-vdW',
  edir=3,
  emaxpos=0.9768593851518887d00,
  eopreg=0.025d00,
  eamp=0.0d00,
  nosym=.false.,
  noinv=.false.,
  nosym_evc=.false.,
  no_t_rev=.false.,
/
&ELECTRONS
  diagonalization='david',
  conv_thr=7.349864494991327e-08,
  mixing_beta=0.05d00,
  electron_maxstep=1000,
  startingpot='file',
  startingwfc='atomic',
/
&IONS
  ion_dynamics='ipi',
/
&CELL
  cell_dynamics='ipi',
/
CELL_PARAMETERS alat
    6.579727202290808d0     0.000000000000000d0     0.000000000000000d0
   -0.000775132442404d0     5.961596420607155d0     0.000000000000000d0
    0.000000000000000d0    -0.000000000000000d0    25.155947251439940d0
ATOMIC_SPECIES
Ti1 47.867d00 Ti.UPF
O1 15.999d00 O.UPF
C1 12.011d00 C.UPF
H1 1.008d00 H.UPF
ATOMIC_POSITIONS {crystal}
Ti1      0.000123603383822d0     0.499897385958537d0     0.238512187198856d0
Ti1      0.500142521004230d0     0.250038178055688d0     0.238522014307695d0
O1       0.000095322930372d0     0.000084774873452d0     0.317452257936818d0
O1       0.500112315057126d0     0.000084209992886d0     0.290342007718641d0
O1       0.698270105622955d0     0.250236102495782d0     0.369213011426276d0
O1       0.301995368073695d0     0.249987007385122d0     0.369214717028816d0
Ti1      0.504443004020564d0     0.508461575603120d0     0.364030045249246d0
Ti1      0.004324161817639d0     0.270858691927981d0     0.372492644815627d0
O1       0.505133461308097d0     0.002374100553283d0     0.451313924620104d0
O1       0.001583853063087d0     0.002100590140763d0     0.421879324523391d0
O1       0.201340946493157d0     0.251979276332628d0     0.502585260443350d0
O1       0.809257553088600d0     0.252640953837742d0     0.503110528309484d0
Ti1      0.006184814347609d0     0.504855450711957d0     0.509798965074170d0
Ti1      0.506079432508487d0     0.253425021141530d0     0.496844816821144d0
O1       0.006056411171701d0     0.001975690661470d0     0.585721200498604d0
O1       0.506108921329086d0     0.002460883617972d0     0.554420264258134d0
O1       0.696193181558810d0     0.252054380506549d0     0.640587575698773d0
O1       0.317368994900178d0     0.251979439390115d0     0.640614522978754d0
Ti1      0.506268030574428d0     0.501646962544647d0     0.625397034585782d0
Ti1      0.008831272693867d0     0.232217197301626d0     0.640758295781803d0
O1       0.500093721748991d0     0.000084921243389d0     0.186906639369252d0
O1       0.006752023941583d0     0.999508809339061d0     0.686010881151554d0
O1       0.198268504441574d0     0.250236248865719d0     0.238667392858710d0
O1       0.801993766892314d0     0.249987153755059d0     0.238669098461250d0
Ti1      0.000123603383822d0     0.999897385958537d0     0.238512187198856d0
Ti1      0.500142521004230d0     0.750038178055688d0     0.238522014307695d0
O1       0.000095322930372d0     0.500084774873452d0     0.317452257936818d0
O1       0.500112315057126d0     0.500084209992886d0     0.290342007718641d0
O1       0.698270105622955d0     0.750236102495782d0     0.369213011426276d0
O1       0.301995368073695d0     0.749987007385122d0     0.369214717028816d0
Ti1      0.502816233590372d0     0.009049877742390d0     0.363894731311761d0
Ti1      0.004882283667821d0     0.761161962414947d0     0.368539921303557d0
O1       0.504868670650815d0     0.502461396159580d0     0.451405524208620d0
O1       0.001766507569054d0     0.502503028858245d0     0.420300675778422d0
O1       0.201574577816480d0     0.753094197958063d0     0.502654739971803d0
O1       0.809021802439657d0     0.752338119423145d0     0.503196012974813d0
Ti1      0.005393368636786d0     0.004606222628574d0     0.498023775528340d0
Ti1      0.506143577550008d0     0.753513694675846d0     0.496756178355815d0
O1       0.009173798065633d0     0.505809560708219d0     0.584764023450553d0
O1       0.505415872102530d0     0.501371396406641d0     0.554152760748766d0
O1       0.695885304831845d0     0.750754309262423d0     0.639946994655756d0
O1       0.317244114904274d0     0.750874090423430d0     0.639998783255614d0
Ti1      0.508817686546843d0     0.001823801665823d0     0.625646576414066d0
Ti1      0.009192536168336d0     0.762029268868574d0     0.635410425372250d0
O1       0.500093721748991d0     0.500084921243389d0     0.186906639369252d0
O1       0.198268504441574d0     0.750236248865719d0     0.238667392858710d0
O1       0.801993766892315d0     0.749987153755059d0     0.238669098461250d0
C1       0.922538337139306d0     0.513816268412636d0     0.742030855713810d0
O1       0.002337179202804d0     0.502977161479787d0     0.689404653900568d0
H1       0.760016056264789d0     0.482317124157851d0     0.741697911516016d0
H1       0.995561673555282d0     0.386871588419080d0     0.766812130934525d0
H1       0.950101350314076d0     0.680358288554280d0     0.758464008800121d0
K_POINTS automatic
4 4 1  0 0 0 
