&CONTROL
  calculation='relax',
  prefix='calc',
  pseudo_dir='/storage/coda1/p-amedford6/0/shared/rich_project_chbe-medford/medford-share/data/pseudos_module/espresso/nninc/pbe/van',
  outdir='.',
  tefield=.true.,
  dipfield=.true.,
  tprnfor=.true.,
  disk_io='none',
/
&SYSTEM
  ibrav=0,
  celldm(1)=1.8897261245650618d0,
  nat=55,
  ntyp=5,
  ecutwfc=29.39945797996531d00,
  ecutrho=293.9945797996531d00,
  nbnd=211,
  occupations='smearing',
  smearing='fd',
  degauss=0.007349864494991328d00,
  input_dft='BEEF-vdW',
  edir=3,
  emaxpos=0.9854262357879353d00,
  eopreg=0.025d00,
  eamp=0.0d00,
  nosym=.false.,
  noinv=.false.,
  nosym_evc=.false.,
  no_t_rev=.false.,
/
&ELECTRONS
  diagonalization='david',
  conv_thr=7.349864494991327e-08,
  mixing_beta=0.05d00,
  electron_maxstep=1000,
  startingwfc='atomic',
/
&IONS
  ion_dynamics='ipi',
/
&CELL
  cell_dynamics='ipi',
/
CELL_PARAMETERS alat
    6.579727202290808d0     0.000000000000000d0     0.000000000000000d0
   -0.000775132442404d0     5.961596420607155d0     0.000000000000000d0
    0.000000000000000d0    -0.000000000000000d0    25.155947251439940d0
ATOMIC_SPECIES
Ti1 47.867d00 Ti.UPF
O1 15.999d00 O.UPF
C1 12.011d00 C.UPF
H1 1.008d00 H.UPF
N1 14.007d00 N.UPF
ATOMIC_POSITIONS {crystal}
Ti1      0.000123603383822d0     0.499897385958537d0     0.238512187198856d0
Ti1      0.500142521004230d0     0.250038178055688d0     0.238522014307695d0
O1       0.000095322930372d0     0.000084774873452d0     0.317452257936818d0
O1       0.500112315057126d0     0.000084209992886d0     0.290342007718641d0
O1       0.698270105622955d0     0.250236102495782d0     0.369213011426276d0
O1       0.301995368073695d0     0.249987007385122d0     0.369214717028816d0
Ti1      0.505699072870511d0     0.504736027987791d0     0.363924288663765d0
Ti1      0.006861488119108d0     0.253001806282267d0     0.368470172063087d0
O1       0.497704035736990d0     0.001495704407894d0     0.451947193395093d0
O1       0.999823199931525d0     0.000540607829201d0     0.421828314769139d0
O1       0.193966006774133d0     0.251731847579519d0     0.503293665174217d0
O1       0.801823875732936d0     0.251633341336573d0     0.502842063461370d0
Ti1      0.994904372432635d0     0.502612157259213d0     0.498550344335745d0
Ti1      0.494101781427830d0     0.252286523383542d0     0.497092069829147d0
O1       0.996399996705661d0     0.001020932793372d0     0.584125155003864d0
O1       0.498522419189706d0     0.001644273770285d0     0.556423397595277d0
O1       0.688501019330409d0     0.255207480793658d0     0.642964139578792d0
O1       0.305255971284934d0     0.255440650364046d0     0.643240549868006d0
Ti1      0.496908090384490d0     0.500860051819310d0     0.625352149166907d0
Ti1      0.996457605356760d0     0.223947858211395d0     0.636674878822260d0
O1       0.500093721748991d0     0.000084921243389d0     0.186906639369252d0
O1       0.997855789675899d0     0.000673064365473d0     0.684880980529614d0
O1       0.198268504441574d0     0.250236248865719d0     0.238667392858710d0
O1       0.801993766892314d0     0.249987153755059d0     0.238669098461250d0
Ti1      0.000123603383822d0     0.999897385958537d0     0.238512187198856d0
Ti1      0.500142521004230d0     0.750038178055688d0     0.238522014307695d0
O1       0.000095322930372d0     0.500084774873452d0     0.317452257936818d0
O1       0.500112315057126d0     0.500084209992886d0     0.290342007718641d0
O1       0.698270105622955d0     0.750236102495782d0     0.369213011426276d0
O1       0.301995368073695d0     0.749987007385122d0     0.369214717028816d0
Ti1      0.504678739637459d0     0.004668904790725d0     0.363860332185816d0
Ti1      0.006753018156724d0     0.750992671990129d0     0.368477566450092d0
O1       0.497477833579138d0     0.501888640534641d0     0.451646020117295d0
O1       0.999634825648562d0     0.500823841314870d0     0.422544431609339d0
O1       0.194120428146988d0     0.751747488362665d0     0.503463976140327d0
O1       0.801777282417999d0     0.751713329535311d0     0.502972747987108d0
Ti1      0.995673794698442d0     0.003069414886712d0     0.496437505118063d0
Ti1      0.494060460526736d0     0.751806195162483d0     0.497390031583642d0
O1       0.995613664798260d0     0.502482912624645d0     0.590766741864499d0
O1       0.498451662398583d0     0.501716585189879d0     0.554449764639985d0
O1       0.687080757062207d0     0.746444680707728d0     0.644686963520905d0
O1       0.304235136482050d0     0.748693119664104d0     0.642296823604592d0
Ti1      0.498326239336625d0     0.001799602179139d0     0.627560213368793d0
Ti1      0.003597712779835d0     0.761582284225086d0     0.631090658108791d0
O1       0.500093721748991d0     0.500084921243389d0     0.186906639369252d0
O1       0.198268504441574d0     0.750236248865719d0     0.238667392858710d0
O1       0.801993766892315d0     0.749987153755059d0     0.238669098461250d0
C1       0.105407215264694d0     0.531677374364690d0     0.751078105126658d0
O1       0.978611641888465d0     0.510888358815385d0     0.703991548319846d0
H1       0.249877267084097d0     0.454554700481308d0     0.741242259605977d0
H1       0.838636607744321d0     0.551123893993768d0     0.712245460172266d0
H1       0.125401474925303d0     0.708699426260991d0     0.760409070463766d0
H1       0.034604440164114d0     0.441160691135658d0     0.783862758288826d0
N1       0.619815315393159d0     0.977570988461471d0     0.783945832206618d0
N1       0.602205898419839d0     0.153654823136309d0     0.770994165483829d0
K_POINTS automatic
4 4 1  0 0 0 
