&CONTROL
  calculation='relax',
  prefix='calc',
  pseudo_dir='/storage/coda1/p-amedford6/0/shared/rich_project_chbe-medford/medford-share/data/pseudos_module/espresso/nninc/pbe/van',
  outdir='.',
  tefield=.true.,
  dipfield=.true.,
  tprnfor=.true.,
  disk_io='none',
/
&SYSTEM
  ibrav=0,
  celldm(1)=1.8897261245650618d0,
  nat=55,
  ntyp=5,
  ecutwfc=29.39945797996531d00,
  ecutrho=293.9945797996531d00,
  nbnd=211,
  occupations='smearing',
  smearing='fd',
  degauss=0.007349864494991328d00,
  input_dft='BEEF-vdW',
  edir=3,
  emaxpos=0.987545506471154d00,
  eopreg=0.025d00,
  eamp=0.0d00,
  nosym=.false.,
  noinv=.false.,
  nosym_evc=.false.,
  no_t_rev=.false.,
/
&ELECTRONS
  diagonalization='david',
  conv_thr=7.349864494991327e-08,
  mixing_beta=0.05d00,
  electron_maxstep=1000,
  startingwfc='atomic',
/
&IONS
  ion_dynamics='ipi',
/
&CELL
  cell_dynamics='ipi',
/
CELL_PARAMETERS alat
    6.579727202290808d0     0.000000000000000d0     0.000000000000000d0
   -0.000775132442404d0     5.961596420607155d0     0.000000000000000d0
    0.000000000000000d0    -0.000000000000000d0    25.155947251439940d0
ATOMIC_SPECIES
Ti1 47.867d00 Ti.UPF
O1 15.999d00 O.UPF
C1 12.011d00 C.UPF
H1 1.008d00 H.UPF
N1 14.007d00 N.UPF
ATOMIC_POSITIONS {crystal}
Ti1      0.000123603383822d0     0.499897385958537d0     0.238512187198856d0
Ti1      0.500142521004230d0     0.250038178055688d0     0.238522014307695d0
O1       0.000095322930372d0     0.000084774873452d0     0.317452257936818d0
O1       0.500112315057126d0     0.000084209992886d0     0.290342007718641d0
O1       0.698270105622955d0     0.250236102495782d0     0.369213011426276d0
O1       0.301995368073695d0     0.249987007385122d0     0.369214717028816d0
Ti1      0.505766685455595d0     0.499926933490133d0     0.363950048810596d0
Ti1      0.007259600763834d0     0.251065372904253d0     0.367892803962466d0
O1       0.496426190287484d0     0.997615084983016d0     0.451509048848977d0
O1       0.996978669273814d0     0.998812296080950d0     0.421092142443211d0
O1       0.190699997747611d0     0.246473111021299d0     0.502079376412971d0
O1       0.798643805631505d0     0.247302883802977d0     0.502541026408494d0
Ti1      0.993954268989637d0     0.497370356513113d0     0.496818754000432d0
Ti1      0.491700499398923d0     0.248473105225678d0     0.496537157759353d0
O1       0.992354317473755d0     0.988512426290297d0     0.580691102616164d0
O1       0.493318557796108d0     0.994749217211163d0     0.555551959697060d0
O1       0.693650102776200d0     0.245148202061209d0     0.641220110595052d0
O1       0.305132640484292d0     0.242415159500033d0     0.641134780070248d0
Ti1      0.495286053701056d0     0.492785297030827d0     0.625164939721813d0
Ti1      0.991665064827387d0     0.218614394920175d0     0.629850966699695d0
O1       0.500093721748991d0     0.000084921243389d0     0.186906639369252d0
O1       0.001905667102565d0     0.995660679843318d0     0.681176845471767d0
O1       0.198268504441574d0     0.250236248865719d0     0.238667392858710d0
O1       0.801993766892314d0     0.249987153755059d0     0.238669098461250d0
Ti1      0.000123603383822d0     0.999897385958537d0     0.238512187198856d0
Ti1      0.500142521004230d0     0.750038178055688d0     0.238522014307695d0
O1       0.000095322930372d0     0.500084774873452d0     0.317452257936818d0
O1       0.500112315057126d0     0.500084209992886d0     0.290342007718641d0
O1       0.698270105622955d0     0.750236102495782d0     0.369213011426276d0
O1       0.301995368073695d0     0.749987007385122d0     0.369214717028816d0
Ti1      0.504966790168838d0     0.999892571443697d0     0.363839882271894d0
Ti1      0.007059010133523d0     0.748520500378130d0     0.367826474242866d0
O1       0.494259881476589d0     0.497473999850826d0     0.451103248754907d0
O1       0.998146411031121d0     0.499193395443393d0     0.421954548721526d0
O1       0.191123319090721d0     0.746193224572719d0     0.502268546918000d0
O1       0.798067496909793d0     0.745050470887137d0     0.501910894645465d0
Ti1      0.992303687418534d0     0.996923182328063d0     0.494761335380238d0
Ti1      0.491799689542618d0     0.747686961353476d0     0.497193716152514d0
O1       0.002357653155840d0     0.493474211107688d0     0.591740712458850d0
O1       0.495379276087526d0     0.495621393118463d0     0.554031064701065d0
O1       0.693272751876671d0     0.739008842154559d0     0.640744027731899d0
O1       0.306457040440128d0     0.739383082846394d0     0.641929850977690d0
Ti1      0.493962184302425d0     0.990770237377169d0     0.626965648153380d0
Ti1      0.991638974286061d0     0.763725933672217d0     0.630815002081175d0
O1       0.500093721748991d0     0.500084921243389d0     0.186906639369252d0
O1       0.198268504441574d0     0.750236248865719d0     0.238667392858710d0
O1       0.801993766892315d0     0.749987153755059d0     0.238669098461250d0
C1       0.079327468030391d0     0.576432999231130d0     0.767314345214439d0
O1       0.232033176859103d0     0.743003182299768d0     0.772417822891554d0
H1       0.130495896132967d0     0.427276329037587d0     0.787956832201012d0
H1       0.185578603900581d0     0.875632332766911d0     0.753935553970711d0
H1       0.933087729359580d0     0.630301427675009d0     0.782940118461721d0
H1       0.055946435142165d0     0.527998595114872d0     0.724982533099321d0
N1       0.569288947558235d0     0.194571866399762d0     0.788184373573056d0
N1       0.666018182588129d0     0.303964749037756d0     0.763256323519730d0
K_POINTS automatic
4 4 1  0 0 0 
