&CONTROL
  calculation='relax',
  prefix='calc',
  pseudo_dir='/storage/coda1/p-amedford6/0/shared/rich_project_chbe-medford/medford-share/data/pseudos_module/espresso/nninc/pbe/van',
  outdir='.',
  tefield=.true.,
  dipfield=.true.,
  tprnfor=.true.,
  disk_io='none',
/
&SYSTEM
  ibrav=0,
  celldm(1)=1.8897261245650618d0,
  nat=55,
  ntyp=4,
  ecutwfc=29.39945797996531d00,
  ecutrho=293.9945797996531d00,
  nbnd=209,
  occupations='smearing',
  smearing='fd',
  degauss=0.007349864494991328d00,
  input_dft='BEEF-vdW',
  edir=3,
  emaxpos=0.9835501850053227d00,
  eopreg=0.025d00,
  eamp=0.0d00,
  nosym=.false.,
  noinv=.false.,
  nosym_evc=.false.,
  no_t_rev=.false.,
/
&ELECTRONS
  diagonalization='david',
  conv_thr=7.349864494991327e-08,
  mixing_beta=0.05d00,
  electron_maxstep=1000,
  startingpot='file',
  startingwfc='atomic',
/
&IONS
  ion_dynamics='ipi',
/
&CELL
  cell_dynamics='ipi',
/
CELL_PARAMETERS alat
    6.579727202290808d0     0.000000000000000d0     0.000000000000000d0
   -0.000775132442404d0     5.961596420607155d0     0.000000000000000d0
    0.000000000000000d0    -0.000000000000000d0    25.155947251439940d0
ATOMIC_SPECIES
Ti1 47.867d00 Ti.UPF
O1 15.999d00 O.UPF
C1 12.011d00 C.UPF
H1 1.008d00 H.UPF
ATOMIC_POSITIONS {crystal}
Ti1      0.000123603383822d0     0.499897385958537d0     0.238512187198856d0
Ti1      0.500142521004230d0     0.250038178055688d0     0.238522014307695d0
O1       0.000095322930372d0     0.000084774873452d0     0.317452257936818d0
O1       0.500112315057126d0     0.000084209992886d0     0.290342007718641d0
O1       0.698270105622955d0     0.250236102495782d0     0.369213011426276d0
O1       0.301995368073695d0     0.249987007385122d0     0.369214717028816d0
Ti1      0.507142998699609d0     0.507315225248238d0     0.365319019581378d0
Ti1      0.009363537401361d0     0.254635058054757d0     0.368648327289307d0
O1       0.504465123712625d0     0.001838625063291d0     0.451481498976240d0
O1       0.002064336050352d0     0.000513704518299d0     0.421068062970200d0
O1       0.199334488927276d0     0.249734118010247d0     0.502455670729587d0
O1       0.811083805578518d0     0.249404966682702d0     0.502555179885791d0
Ti1      0.003853317757676d0     0.509204564364222d0     0.499267077641334d0
Ti1      0.504859700610221d0     0.263676263206527d0     0.494128323714253d0
O1       0.007351503691624d0     0.995041504891429d0     0.582735460916848d0
O1       0.505508421541150d0     0.984904709733955d0     0.556862840730573d0
O1       0.703616204978770d0     0.251506826388476d0     0.641537158440305d0
O1       0.314816874934526d0     0.257786873833867d0     0.638641804609282d0
Ti1      0.507989389037063d0     0.492100170027313d0     0.623277485838022d0
Ti1      0.012476188196215d0     0.221584697017341d0     0.633803405704598d0
O1       0.500093721748991d0     0.000084921243389d0     0.186906639369252d0
O1       0.017050881128151d0     0.000090551969655d0     0.682931899354423d0
O1       0.198268504441574d0     0.250236248865719d0     0.238667392858710d0
O1       0.801993766892314d0     0.249987153755059d0     0.238669098461250d0
Ti1      0.000123603383822d0     0.999897385958537d0     0.238512187198856d0
Ti1      0.500142521004230d0     0.750038178055688d0     0.238522014307695d0
O1       0.000095322930372d0     0.500084774873452d0     0.317452257936818d0
O1       0.500112315057126d0     0.500084209992886d0     0.290342007718641d0
O1       0.698270105622955d0     0.750236102495782d0     0.369213011426276d0
O1       0.301995368073695d0     0.749987007385122d0     0.369214717028816d0
Ti1      0.507101703751411d0     0.006439253533890d0     0.364458715532492d0
Ti1      0.009328709856989d0     0.750751462528215d0     0.368610557017076d0
O1       0.503946984869012d0     0.495315262504588d0     0.449597368194425d0
O1       0.002040481493513d0     0.500227385200400d0     0.421643166396832d0
O1       0.198877803377077d0     0.748671131718358d0     0.502226128552437d0
O1       0.811289676168600d0     0.749439076644720d0     0.502350816874587d0
Ti1      0.005584172989393d0     0.009290011054827d0     0.495865091625650d0
Ti1      0.504339456689755d0     0.780406179456517d0     0.505131008433590d0
O1       0.003496573829899d0     0.500889568199818d0     0.587912425907778d0
O1       0.508655579839805d0     0.496567030535120d0     0.552798015009047d0
O1       0.704073329500940d0     0.738962075273388d0     0.642630329552371d0
O1       0.313954646182386d0     0.729340334778564d0     0.640624571667894d0
Ti1      0.517350204787472d0     0.992776764660135d0     0.646808991434965d0
Ti1      0.009918563641283d0     0.757267970386015d0     0.630283108167517d0
O1       0.500093721748991d0     0.500084921243389d0     0.186906639369252d0
O1       0.198268504441574d0     0.750236248865719d0     0.238667392858710d0
O1       0.801993766892315d0     0.749987153755059d0     0.238669098461250d0
C1       0.902126666485754d0     0.513000874252082d0     0.750117525995254d0
O1       0.028274535583262d0     0.503467033532091d0     0.702329281669819d0
H1       0.753546004305483d0     0.450374213928763d0     0.738915791019108d0
H1       0.170057957023030d0     0.527825640264867d0     0.711657694275401d0
H1       0.968287439378570d0     0.403925162911036d0     0.780193730641393d0
H1       0.892560001438887d0     0.686136179252092d0     0.763538260311496d0
O1       0.477634490642987d0     0.998711976408240d0     0.720007187086341d0
H1       0.336210109995479d0     0.008739041609726d0     0.729410454362395d0
K_POINTS automatic
4 4 1  0 0 0 
