&CONTROL
  calculation='relax',
  prefix='calc',
  pseudo_dir='/storage/coda1/p-amedford6/0/shared/rich_project_chbe-medford/medford-share/data/pseudos_module/espresso/nninc/pbe/van',
  outdir='.',
  tefield=.true.,
  dipfield=.true.,
  tprnfor=.true.,
  disk_io='none',
/
&SYSTEM
  ibrav=0,
  celldm(1)=1.8897261245650618d0,
  nat=52,
  ntyp=5,
  ecutwfc=29.39945797996531d00,
  ecutrho=293.9945797996531d00,
  nbnd=207,
  occupations='smearing',
  smearing='fd',
  degauss=0.007349864494991328d00,
  input_dft='BEEF-vdW',
  edir=3,
  emaxpos=0.0011785374762189882d00,
  eopreg=0.025d00,
  eamp=0.0d00,
  nosym=.false.,
  noinv=.false.,
  nosym_evc=.false.,
  no_t_rev=.false.,
/
&ELECTRONS
  diagonalization='david',
  conv_thr=7.349864494991327e-08,
  mixing_beta=0.05d00,
  electron_maxstep=1000,
  startingpot='file',
  startingwfc='atomic',
/
&IONS
  ion_dynamics='ipi',
/
&CELL
  cell_dynamics='ipi',
/
CELL_PARAMETERS alat
    6.579727202290808d0     0.000000000000000d0     0.000000000000000d0
   -0.000775132442404d0     5.961596420607155d0     0.000000000000000d0
    0.000000000000000d0    -0.000000000000000d0    25.155947251439940d0
ATOMIC_SPECIES
Ti1 47.867d00 Ti.UPF
O1 15.999d00 O.UPF
N1 14.007d00 N.UPF
C1 12.011d00 C.UPF
H1 1.008d00 H.UPF
ATOMIC_POSITIONS {crystal}
Ti1      0.000123603383822d0     0.499897385958536d0     0.238512187198856d0
Ti1      0.500142521004230d0     0.250038178055688d0     0.238522014307695d0
O1       0.000095322930372d0     0.000084774873452d0     0.317452257936818d0
O1       0.500112315057126d0     0.000084209992886d0     0.290342007718641d0
O1       0.698270105622955d0     0.250236102495782d0     0.369213011426276d0
O1       0.301995368073695d0     0.249987007385122d0     0.369214717028816d0
Ti1      0.500198167309398d0     0.485761668506182d0     0.364758343030283d0
Ti1      0.000261424674789d0     0.248709163236136d0     0.368424970923767d0
O1       0.500820167149086d0     0.997129125684428d0     0.449549977585592d0
O1       0.001882992193933d0     0.999479849154423d0     0.422099495650131d0
O1       0.196287409391655d0     0.247542838502000d0     0.501770898229159d0
O1       0.801630310641956d0     0.247078302705141d0     0.500959846334084d0
Ti1      0.013585167422809d0     0.495922430618936d0     0.505726082429154d0
Ti1      0.520135616809274d0     0.246616842118130d0     0.495502517258861d0
O1       0.001153561603813d0     0.996573902181466d0     0.580169913906333d0
O1       0.500820845853355d0     0.997933423668885d0     0.551872405686077d0
O1       0.687756914278506d0     0.251316343186781d0     0.637846180846341d0
O1       0.314100865694258d0     0.249630033340619d0     0.637150323650514d0
Ti1      0.498237025424324d0     0.497923242504451d0     0.623597263431430d0
Ti1      0.995362615827787d0     0.256809146667170d0     0.637284354985099d0
O1       0.500093721748991d0     0.000084921243389d0     0.186906639369252d0
O1       0.001872277688302d0     0.001291433271805d0     0.682459183459092d0
O1       0.198268504441574d0     0.250236248865719d0     0.238667392858710d0
O1       0.801993766892314d0     0.249987153755059d0     0.238669098461250d0
Ti1      0.000123603383822d0     0.999897385958536d0     0.238512187198856d0
Ti1      0.500142521004230d0     0.750038178055688d0     0.238522014307695d0
O1       0.000095322930372d0     0.500084774873452d0     0.317452257936818d0
O1       0.500112315057126d0     0.500084209992886d0     0.290342007718641d0
O1       0.698270105622955d0     0.750236102495782d0     0.369213011426276d0
O1       0.301995368073695d0     0.749987007385122d0     0.369214717028816d0
Ti1      0.500001644927041d0     0.985370751416071d0     0.364779031055315d0
Ti1      0.000183276761494d0     0.748948988039575d0     0.368476322807288d0
O1       0.501295851816314d0     0.497659092612987d0     0.449513076557296d0
O1       0.001460782485842d0     0.499964783615161d0     0.422656139091726d0
O1       0.196132963970233d0     0.746257811960366d0     0.501956457452948d0
O1       0.801694953409617d0     0.747201671793474d0     0.501237101840715d0
Ti1      0.015918742769662d0     0.995969654368881d0     0.503814048931732d0
Ti1      0.520073143533641d0     0.746327938046539d0     0.495716479526971d0
O1       0.997792304825086d0     0.494156627677890d0     0.581882604114746d0
O1       0.500736454731985d0     0.497499275357005d0     0.551698774680569d0
O1       0.688371436211213d0     0.748700350444869d0     0.638080628850035d0
O1       0.313139341363593d0     0.750629601449356d0     0.636685451439574d0
Ti1      0.497311797340043d0     0.998346354623356d0     0.623718269184377d0
Ti1      0.997340150790019d0     0.769968673031866d0     0.637216191692966d0
O1       0.500093721748991d0     0.500084921243389d0     0.186906639369252d0
O1       0.198268504441574d0     0.750236248865719d0     0.238667392858710d0
O1       0.801993766892315d0     0.749987153755059d0     0.238669098461250d0
N1       0.098237637424331d0     0.513450472536477d0     0.735774998449857d0
N1       0.014592442950742d0     0.499181513784190d0     0.689227140113199d0
C1       0.008869326504573d0     0.548471322074758d0     0.780200088824086d0
H1       0.844614856943896d0     0.567567481287013d0     0.783157529219266d0
H1       0.103833650079610d0     0.558388060072240d0     0.815450435583186d0
K_POINTS automatic
4 4 1  0 0 0 
