&CONTROL
  calculation='relax',
  prefix='calc',
  pseudo_dir='/storage/coda1/p-amedford6/0/shared/rich_project_chbe-medford/medford-share/data/pseudos_module/espresso/sssp/prec/v1_1/nonrel',
  outdir='.',
  tefield=.true.,
  dipfield=.true.,
  tprnfor=.true.,
  disk_io='none',
/
&SYSTEM
  ibrav=0,
  celldm(1)=1.8897261245650618d0,
  nat=3,
  ntyp=2,
  ecutwfc=73.49864494991327d00,
  ecutrho=293.9945797996531d00,
  nbnd=15,
  occupations='smearing',
  smearing='fd',
  degauss=0.007349864494991328d00,
  input_dft='BEEF-vdW',
  edir=3,
  emaxpos=0.0d00,
  eopreg=0.025d00,
  eamp=0.0d00,
  nosym=.false.,
  noinv=.false.,
  nosym_evc=.false.,
  no_t_rev=.false.,
/
&ELECTRONS
  diagonalization='david',
  conv_thr=7.349864494991327e-08,
  mixing_beta=0.05d00,
  electron_maxstep=1000,
  startingwfc='atomic',
/
&IONS
  ion_dynamics='ipi',
/
&CELL
  cell_dynamics='ipi',
/
CELL_PARAMETERS alat
   10.000000000000000d0     0.000000000000000d0     0.000000000000000d0
    0.000000000000000d0    10.000000000000000d0     0.000000000000000d0
    0.000000000000000d0     0.000000000000000d0    10.000000000000000d0
ATOMIC_SPECIES
H1 1.008d00 H.UPF
N1 14.007d00 N.UPF
ATOMIC_POSITIONS {crystal}
H1       0.416906729862238d0     0.474627187397376d0     0.448728462088438d0
N1       0.508486880471409d0     0.525372812602624d0     0.472843768318770d0
N1       0.583093270137762d0     0.480916974221026d0     0.551271537911562d0
K_POINTS automatic
1 1 1  0 0 0 
