&CONTROL
  calculation='relax',
  prefix='calc',
  pseudo_dir='/storage/coda1/p-amedford6/0/shared/rich_project_chbe-medford/medford-share/data/pseudos_module/espresso/nninc/pbe/van',
  outdir='.',
  tefield=.true.,
  dipfield=.true.,
  tprnfor=.true.,
  disk_io='none',
/
&SYSTEM
  ibrav=0,
  celldm(1)=1.8897261245650618d0,
  nat=54,
  ntyp=5,
  ecutwfc=29.39945797996531d00,
  ecutrho=293.9945797996531d00,
  nbnd=210,
  occupations='smearing',
  smearing='fd',
  degauss=0.007349864494991328d00,
  input_dft='BEEF-vdW',
  edir=3,
  emaxpos=0.03161262358045813d00,
  eopreg=0.025d00,
  eamp=0.0d00,
  nosym=.false.,
  noinv=.false.,
  nosym_evc=.false.,
  no_t_rev=.false.,
/
&ELECTRONS
  diagonalization='david',
  conv_thr=7.349864494991327e-08,
  mixing_beta=0.05d00,
  electron_maxstep=1000,
  startingpot='file',
  startingwfc='atomic',
/
&IONS
  ion_dynamics='ipi',
/
&CELL
  cell_dynamics='ipi',
/
CELL_PARAMETERS alat
    6.579727202290808d0     0.000000000000000d0     0.000000000000000d0
   -0.000775132442404d0     5.961596420607155d0     0.000000000000000d0
    0.000000000000000d0    -0.000000000000000d0    25.155947251439940d0
ATOMIC_SPECIES
C1 12.011d00 C.UPF
H1 1.008d00 H.UPF
O1 15.999d00 O.UPF
Ti1 47.867d00 Ti.UPF
N1 14.007d00 N.UPF
ATOMIC_POSITIONS {crystal}
C1       0.786752344191233d0     0.258068928279915d0     0.789335922320539d0
H1       0.644709994974495d0     0.237670536792095d0     0.768506300143887d0
H1       0.932132706356917d0     0.488129947247984d0     0.723558833599629d0
H1       0.916432769925833d0     0.154013948947055d0     0.780677186028439d0
O1       0.000095322930372d0     0.000084774873452d0     0.317452257936818d0
O1       0.500112315057126d0     0.000084209992886d0     0.290342007718641d0
O1       0.698270105622955d0     0.250236102495782d0     0.369213011426276d0
O1       0.301995368073695d0     0.249987007385122d0     0.369214717028816d0
O1       0.496933187953609d0     0.002970547709558d0     0.451029749495626d0
O1       0.999189001620609d0     0.001875324330433d0     0.421831022296065d0
O1       0.194125317775413d0     0.252793036765735d0     0.502910203267740d0
O1       0.801721673010658d0     0.252569126340744d0     0.502381402342785d0
O1       0.991881271813281d0     0.004148884492284d0     0.585616584401748d0
O1       0.497703592184125d0     0.003584152013818d0     0.553797109561761d0
O1       0.682936699244569d0     0.255635000878469d0     0.640288890751786d0
O1       0.304397439919810d0     0.255251678587587d0     0.638859387334043d0
O1       0.500093721748991d0     0.000084921243389d0     0.186906639369252d0
O1       0.995023216941572d0     0.007067520832028d0     0.685948469946223d0
O1       0.198268504441574d0     0.250236248865719d0     0.238667392858710d0
O1       0.801993766892314d0     0.249987153755059d0     0.238669098461250d0
O1       0.000095322930372d0     0.500084774873452d0     0.317452257936818d0
O1       0.500112315057126d0     0.500084209992886d0     0.290342007718641d0
O1       0.698270105622955d0     0.750236102495782d0     0.369213011426276d0
O1       0.301995368073695d0     0.749987007385122d0     0.369214717028816d0
O1       0.497379485441790d0     0.503414367111949d0     0.451077266641397d0
O1       0.999909292230691d0     0.502477159123322d0     0.420088242166720d0
O1       0.193954854329727d0     0.752870047607233d0     0.503064817828429d0
O1       0.802152518807238d0     0.753216755790017d0     0.502520153053209d0
O1       0.994797274895711d0     0.500554251500001d0     0.584473274521396d0
O1       0.498157492595419d0     0.504263289184235d0     0.553762799250317d0
O1       0.683114846480282d0     0.754879855134453d0     0.640665057806924d0
O1       0.304301849406774d0     0.755097036180807d0     0.639284465028640d0
O1       0.500093721748991d0     0.500084921243389d0     0.186906639369252d0
O1       0.198268504441574d0     0.750236248865719d0     0.238667392858710d0
O1       0.801993766892315d0     0.749987153755059d0     0.238669098461250d0
O1       0.996091735489164d0     0.503963206449952d0     0.688894349498830d0
Ti1      0.000123603383822d0     0.499897385958537d0     0.238512187198856d0
Ti1      0.500142521004230d0     0.250038178055688d0     0.238522014307695d0
Ti1      0.506903219957487d0     0.508709781917758d0     0.364045981546693d0
Ti1      0.003131814219975d0     0.270059160580905d0     0.372177586382173d0
Ti1      0.993726355681640d0     0.504590329015707d0     0.509827665310819d0
Ti1      0.489792862085146d0     0.253988217232691d0     0.496322485329751d0
Ti1      0.494392787930597d0     0.505933686127065d0     0.625033797551458d0
Ti1      0.994991480090028d0     0.242705142275373d0     0.635121146986710d0
Ti1      0.000123603383822d0     0.999897385958537d0     0.238512187198856d0
Ti1      0.500142521004230d0     0.750038178055688d0     0.238522014307695d0
Ti1      0.498975754843319d0     0.009371020138641d0     0.363860745031637d0
Ti1      0.004557997200746d0     0.760168684851793d0     0.368673350510060d0
Ti1      0.990315336293989d0     0.003750314504089d0     0.497877206057206d0
Ti1      0.489581026154417d0     0.753899813930094d0     0.496579642229048d0
Ti1      0.494635740618725d0     0.005646040836053d0     0.624987319319807d0
Ti1      0.994478794677149d0     0.773349974991702d0     0.641237236668490d0
N1       0.772059334746938d0     0.437186688787409d0     0.876318607791664d0
N1       0.778007458566021d0     0.350839650038600d0     0.836107250521180d0
K_POINTS automatic
4 4 1  0 0 0 
