&CONTROL
  calculation='relax',
  prefix='calc',
  pseudo_dir='/storage/coda1/p-amedford6/0/shared/rich_project_chbe-medford/medford-share/data/pseudos_module/espresso/nninc/pbe/van',
  outdir='.',
  tefield=.true.,
  dipfield=.true.,
  tprnfor=.true.,
  disk_io='none',
/
&SYSTEM
  ibrav=0,
  celldm(1)=1.8897261245650618d0,
  nat=59,
  ntyp=5,
  ecutwfc=29.39945797996531d00,
  ecutrho=293.9945797996531d00,
  nbnd=210,
  occupations='smearing',
  smearing='fd',
  degauss=0.007349864494991328d00,
  input_dft='BEEF-vdW',
  edir=3,
  emaxpos=0.07227225764475054d00,
  eopreg=0.025d00,
  eamp=0.0d00,
  nosym=.false.,
  noinv=.false.,
  nosym_evc=.false.,
  no_t_rev=.false.,
/
&ELECTRONS
  diagonalization='david',
  conv_thr=7.349864494991327e-08,
  mixing_beta=0.05d00,
  electron_maxstep=1000,
  startingwfc='atomic',
/
&IONS
  ion_dynamics='ipi',
/
&CELL
  cell_dynamics='ipi',
/
CELL_PARAMETERS alat
    6.579727202290808d0     0.000000000000000d0     0.000000000000000d0
   -0.000775132442404d0     5.961596420607155d0     0.000000000000000d0
    0.000000000000000d0    -0.000000000000000d0    25.155947251439940d0
ATOMIC_SPECIES
Ti1 47.867d00 Ti.UPF
O1 15.999d00 O.UPF
C1 12.011d00 C.UPF
H1 1.008d00 H.UPF
N1 14.007d00 N.UPF
ATOMIC_POSITIONS {crystal}
Ti1      0.000123603383822d0     0.499897385958536d0     0.238512187198856d0
Ti1      0.500142521004230d0     0.250038178055688d0     0.238522014307695d0
O1       0.000095322930372d0     0.000084774873452d0     0.317452257936818d0
O1       0.500112315057126d0     0.000084209992886d0     0.290342007718641d0
O1       0.698270105622955d0     0.250236102495782d0     0.369213011426276d0
O1       0.301995368073695d0     0.249987007385122d0     0.369214717028816d0
Ti1      0.500198167309398d0     0.485761668506182d0     0.364758343030283d0
Ti1      0.000261424674789d0     0.248709163236136d0     0.368424970923767d0
O1       0.501617814353882d0     0.999631028639145d0     0.450481665480579d0
O1       0.001882992193933d0     0.999479849154423d0     0.422099495650131d0
O1       0.197249822497966d0     0.250138470315575d0     0.501573929682049d0
O1       0.802916353240715d0     0.250722324071110d0     0.501342701582113d0
Ti1      0.010594444882394d0     0.498097715039843d0     0.502121963466625d0
Ti1      0.515799083122165d0     0.250769206118495d0     0.495934322645138d0
O1       0.001287663275885d0     0.004300001073248d0     0.581610766523728d0
O1       0.501686342336401d0     0.001232726698245d0     0.553361520632428d0
O1       0.691878584347507d0     0.252016372913675d0     0.638842353750993d0
O1       0.312591514582808d0     0.251431127830903d0     0.638512324160239d0
Ti1      0.500931479443840d0     0.500107111661628d0     0.624171729979962d0
Ti1      0.999895636928923d0     0.242346687209257d0     0.629302312474050d0
O1       0.500093721748991d0     0.000084921243389d0     0.186906639369252d0
O1       0.002002806620136d0     0.998869744216909d0     0.682172022337767d0
O1       0.198268504441574d0     0.250236248865719d0     0.238667392858710d0
O1       0.801993766892314d0     0.249987153755059d0     0.238669098461250d0
Ti1      0.000123603383822d0     0.999897385958536d0     0.238512187198856d0
Ti1      0.500142521004230d0     0.750038178055688d0     0.238522014307695d0
O1       0.000095322930372d0     0.500084774873452d0     0.317452257936818d0
O1       0.500112315057126d0     0.500084209992886d0     0.290342007718641d0
O1       0.698270105622955d0     0.750236102495782d0     0.369213011426276d0
O1       0.301995368073695d0     0.749987007385122d0     0.369214717028816d0
Ti1      0.500001644927041d0     0.985370751416071d0     0.364779031055315d0
Ti1      0.000183276761494d0     0.748948988039575d0     0.368476322807288d0
O1       0.501801653075155d0     0.501586362492065d0     0.450445129024369d0
O1       0.001460782485842d0     0.499964783615161d0     0.422656139091726d0
O1       0.196947474604616d0     0.750409402101735d0     0.502319410102361d0
O1       0.803991005493046d0     0.751183159871011d0     0.502047016420811d0
Ti1      0.013021353218947d0     0.997528392109821d0     0.498946570069325d0
Ti1      0.516316889047311d0     0.750635262056365d0     0.496422493204875d0
O1       0.001962385729099d0     0.493571017867148d0     0.583510347570075d0
O1       0.501699805115282d0     0.500057881143818d0     0.552806826495466d0
O1       0.690848351515641d0     0.749141340302703d0     0.638582132518674d0
O1       0.313325017730748d0     0.749365414797118d0     0.638341199238366d0
Ti1      0.501038305952953d0     0.000297012741876d0     0.624825769707396d0
Ti1      0.000407382848985d0     0.761005627868489d0     0.641074853176244d0
O1       0.500093721748991d0     0.500084921243389d0     0.186906639369252d0
O1       0.198268504441574d0     0.750236248865719d0     0.238667392858710d0
O1       0.801993766892315d0     0.749987153755059d0     0.238669098461250d0
C1       0.004705517691938d0     0.508999333410898d0     0.706512991975974d0
H1       0.865465964957129d0     0.569026140055895d0     0.725582464952860d0
H1       0.020048446527756d0     0.333749672738675d0     0.718228952154600d0
H1       0.134485763907465d0     0.593206013562173d0     0.725013279119829d0
N1       0.937853736796732d0     0.259466052679986d0     0.868876986406490d0
H1       0.942078346391755d0     0.412989415834844d0     0.851211720461127d0
H1       0.952396901307423d0     0.145740516852429d0     0.839014774106136d0
H1       0.793853546927984d0     0.241542827492221d0     0.883326936470629d0
N1       0.434133912783232d0     0.164924829630198d0     0.919178778935441d0
H1       0.431932137824093d0     0.994644907936902d0     0.919783826542590d0
H1       0.291389811133644d0     0.213270906713733d0     0.908540654408698d0
H1       0.451121999071635d0     0.212957669445441d0     0.957637875920249d0
K_POINTS automatic
4 4 1  0 0 0 
