&CONTROL
  calculation='relax',
  prefix='calc',
  pseudo_dir='/storage/coda1/p-amedford6/0/shared/rich_project_chbe-medford/medford-share/data/pseudos_module/espresso/nninc/pbe/van',
  outdir='.',
  tefield=.true.,
  dipfield=.true.,
  tprnfor=.true.,
  disk_io='none',
/
&SYSTEM
  ibrav=0,
  celldm(1)=1.8897261245650618d0,
  nat=56,
  ntyp=5,
  ecutwfc=29.39945797996531d00,
  ecutrho=293.9945797996531d00,
  nbnd=211,
  occupations='smearing',
  smearing='fd',
  degauss=0.007349864494991328d00,
  input_dft='BEEF-vdW',
  edir=3,
  emaxpos=0.9801396784345628d00,
  eopreg=0.025d00,
  eamp=0.0d00,
  nosym=.false.,
  noinv=.false.,
  nosym_evc=.false.,
  no_t_rev=.false.,
/
&ELECTRONS
  diagonalization='david',
  conv_thr=7.349864494991327e-08,
  mixing_beta=0.05d00,
  electron_maxstep=1000,
  startingpot='file',
  startingwfc='atomic',
/
&IONS
  ion_dynamics='ipi',
/
&CELL
  cell_dynamics='ipi',
/
CELL_PARAMETERS alat
    6.579727202290808d0     0.000000000000000d0     0.000000000000000d0
   -0.000775132442404d0     5.961596420607155d0     0.000000000000000d0
    0.000000000000000d0    -0.000000000000000d0    25.155947251439940d0
ATOMIC_SPECIES
Ti1 47.867d00 Ti.UPF
O1 15.999d00 O.UPF
N1 14.007d00 N.UPF
C1 12.011d00 C.UPF
H1 1.008d00 H.UPF
ATOMIC_POSITIONS {crystal}
Ti1      0.000123603383822d0     0.499897385958536d0     0.238512187198856d0
Ti1      0.500142521004230d0     0.250038178055688d0     0.238522014307695d0
O1       0.000095322930372d0     0.000084774873452d0     0.317452257936818d0
O1       0.500112315057126d0     0.000084209992886d0     0.290342007718641d0
O1       0.698270105622955d0     0.250236102495782d0     0.369213011426276d0
O1       0.301995368073695d0     0.249987007385122d0     0.369214717028816d0
Ti1      0.500198167309398d0     0.485761668506182d0     0.364758343030283d0
Ti1      0.000261424674789d0     0.248709163236136d0     0.368424970923767d0
O1       0.506152814356577d0     0.996291592824310d0     0.450650436878977d0
O1       0.001882992193933d0     0.999479849154423d0     0.422099495650131d0
O1       0.203935353929026d0     0.249146625348498d0     0.500893302041981d0
O1       0.812014638931360d0     0.248021696442070d0     0.502342577379137d0
Ti1      0.001827287010577d0     0.492384433132217d0     0.501512900802427d0
Ti1      0.496016142810479d0     0.244549469517186d0     0.496952059718771d0
O1       0.016185183186914d0     0.008368107397793d0     0.581002528749236d0
O1       0.504700411686605d0     0.000360503151521d0     0.553932842609438d0
O1       0.706183689106978d0     0.245235272172544d0     0.635714704218131d0
O1       0.326281177066460d0     0.251431564645708d0     0.640500332157322d0
Ti1      0.521457251859726d0     0.496387747903868d0     0.623566210122531d0
Ti1      0.021476861410520d0     0.241700004601987d0     0.642243145100239d0
O1       0.500093721748991d0     0.000084921243389d0     0.186906639369252d0
O1       0.016733670542123d0     0.983244847181215d0     0.680907079991529d0
O1       0.198268504441574d0     0.250236248865719d0     0.238667392858710d0
O1       0.801993766892314d0     0.249987153755059d0     0.238669098461250d0
Ti1      0.000123603383822d0     0.999897385958536d0     0.238512187198856d0
Ti1      0.500142521004230d0     0.750038178055688d0     0.238522014307695d0
O1       0.000095322930372d0     0.500084774873452d0     0.317452257936818d0
O1       0.500112315057126d0     0.500084209992886d0     0.290342007718641d0
O1       0.698270105622955d0     0.750236102495782d0     0.369213011426276d0
O1       0.301995368073695d0     0.749987007385122d0     0.369214717028816d0
Ti1      0.500001644927041d0     0.985370751416071d0     0.364779031055315d0
Ti1      0.000183276761494d0     0.748948988039575d0     0.368476322807288d0
O1       0.505436498541807d0     0.498621871711644d0     0.450894763378482d0
O1       0.001460782485842d0     0.499964783615161d0     0.422656139091726d0
O1       0.203674501416860d0     0.748155116687570d0     0.502254588117044d0
O1       0.812586051318608d0     0.747894879547208d0     0.503629437400221d0
Ti1      0.997687420815480d0     0.995072965083971d0     0.497537698266287d0
Ti1      0.496083522814734d0     0.747418863952957d0     0.497307591899595d0
O1       0.016914209179836d0     0.492242357126840d0     0.587471547755448d0
O1       0.508068231747096d0     0.494186639932390d0     0.552322691531941d0
O1       0.709419802567300d0     0.745593097828361d0     0.632820140453984d0
O1       0.323568086223224d0     0.739438432393952d0     0.635913422394870d0
Ti1      0.515731093127097d0     0.996362298487058d0     0.627709598983445d0
Ti1      0.017962413580489d0     0.772862181683239d0     0.625005111703823d0
O1       0.500093721748991d0     0.500084921243389d0     0.186906639369252d0
O1       0.198268504441574d0     0.750236248865719d0     0.238667392858710d0
O1       0.801993766892315d0     0.749987153755059d0     0.238669098461250d0
N1       0.962436472044516d0     0.451165490872034d0     0.710996434499290d0
C1       0.112662197038980d0     0.520381644937501d0     0.739585513830049d0
H1       0.255772627127702d0     0.497763348065018d0     0.718041268073582d0
N1       0.760920243738863d0     0.474154248122100d0     0.734333352561332d0
H1       0.787380589463102d0     0.511519776445561d0     0.773372717499873d0
H1       0.695956542864944d0     0.319140292543866d0     0.732909053415760d0
O1       0.529070737578409d0     0.961117725922807d0     0.721527819663155d0
H1       0.609939436596332d0     0.826413247926716d0     0.728672485619001d0
H1       0.394968388340709d0     0.931501034687607d0     0.736316057321053d0
K_POINTS automatic
4 4 1  0 0 0 
