&CONTROL
  calculation='relax',
  prefix='calc',
  pseudo_dir='/storage/coda1/p-amedford6/0/shared/rich_project_chbe-medford/medford-share/data/pseudos_module/espresso/nninc/pbe/van',
  outdir='.',
  tefield=.true.,
  dipfield=.true.,
  tprnfor=.true.,
  disk_io='none',
/
&SYSTEM
  ibrav=0,
  celldm(1)=1.8897261245650618d0,
  nat=55,
  ntyp=5,
  ecutwfc=29.39945797996531d00,
  ecutrho=293.9945797996531d00,
  nbnd=211,
  occupations='smearing',
  smearing='fd',
  degauss=0.007349864494991328d00,
  input_dft='BEEF-vdW',
  edir=3,
  emaxpos=0.9999011810284171d00,
  eopreg=0.025d00,
  eamp=0.0d00,
  nosym=.false.,
  noinv=.false.,
  nosym_evc=.false.,
  no_t_rev=.false.,
/
&ELECTRONS
  diagonalization='david',
  conv_thr=7.349864494991327e-08,
  mixing_beta=0.05d00,
  electron_maxstep=1000,
  startingpot='file',
  startingwfc='atomic',
/
&IONS
  ion_dynamics='ipi',
/
&CELL
  cell_dynamics='ipi',
/
CELL_PARAMETERS alat
    6.579727202290808d0     0.000000000000000d0     0.000000000000000d0
   -0.000775132442404d0     5.961596420607155d0     0.000000000000000d0
    0.000000000000000d0    -0.000000000000000d0    25.155947251439940d0
ATOMIC_SPECIES
Ti1 47.867d00 Ti.UPF
O1 15.999d00 O.UPF
N1 14.007d00 N.UPF
C1 12.011d00 C.UPF
H1 1.008d00 H.UPF
ATOMIC_POSITIONS {crystal}
Ti1      0.000123603383822d0     0.499897385958536d0     0.238512187198856d0
Ti1      0.500142521004230d0     0.250038178055688d0     0.238522014307695d0
O1       0.000095322930372d0     0.000084774873452d0     0.317452257936818d0
O1       0.500112315057126d0     0.000084209992886d0     0.290342007718641d0
O1       0.698270105622955d0     0.250236102495782d0     0.369213011426276d0
O1       0.301995368073695d0     0.249987007385122d0     0.369214717028816d0
Ti1      0.500198167309398d0     0.485761668506182d0     0.364758343030283d0
Ti1      0.000261424674789d0     0.248709163236136d0     0.368424970923767d0
O1       0.498774876261699d0     0.007121871044774d0     0.448030583295148d0
O1       0.001882992193933d0     0.999479849154423d0     0.422099495650131d0
O1       0.194774006839445d0     0.250796948097627d0     0.502196971428855d0
O1       0.802723872330164d0     0.250292407691749d0     0.501948134175768d0
Ti1      0.998009662364860d0     0.479799062220235d0     0.504229313782594d0
Ti1      0.497272877661701d0     0.239071455937867d0     0.493763933686590d0
O1       0.998687548873915d0     0.000758193409075d0     0.581642280535727d0
O1       0.497885473420117d0     0.001419734140570d0     0.552284196594870d0
O1       0.691806226836307d0     0.251332760672781d0     0.636067542266008d0
O1       0.308116068264091d0     0.252794853758447d0     0.637935756834048d0
Ti1      0.491656882732128d0     0.504776454107147d0     0.645715695361031d0
Ti1      0.987021716510918d0     0.251204630390524d0     0.628661403927778d0
O1       0.500093721748991d0     0.000084921243389d0     0.186906639369252d0
O1       0.996691225401840d0     0.006651190784194d0     0.682710148636535d0
O1       0.198268504441574d0     0.250236248865719d0     0.238667392858710d0
O1       0.801993766892314d0     0.249987153755059d0     0.238669098461250d0
Ti1      0.000123603383822d0     0.999897385958536d0     0.238512187198856d0
Ti1      0.500142521004230d0     0.750038178055688d0     0.238522014307695d0
O1       0.000095322930372d0     0.500084774873452d0     0.317452257936818d0
O1       0.500112315057126d0     0.500084209992886d0     0.290342007718641d0
O1       0.698270105622955d0     0.750236102495782d0     0.369213011426276d0
O1       0.301995368073695d0     0.749987007385122d0     0.369214717028816d0
Ti1      0.500001644927041d0     0.985370751416071d0     0.364779031055315d0
Ti1      0.000183276761494d0     0.748948988039575d0     0.368476322807288d0
O1       0.498562837600624d0     0.497620481272669d0     0.449124695811959d0
O1       0.001460782485842d0     0.499964783615161d0     0.422656139091726d0
O1       0.193942863306019d0     0.751874798716647d0     0.501917901024588d0
O1       0.803288985706608d0     0.751606182728706d0     0.501581136454926d0
Ti1      0.998211433386578d0     0.978566501902036d0     0.499093256492725d0
Ti1      0.497554661906446d0     0.720848027036195d0     0.503269589823321d0
O1       0.998487517580039d0     0.499632130144191d0     0.583489849547395d0
O1       0.498648111498651d0     0.509821137058808d0     0.552707959633831d0
O1       0.689109777228353d0     0.758866730162798d0     0.639500013508715d0
O1       0.305177741299543d0     0.759795446193556d0     0.638445993032817d0
Ti1      0.495436016649619d0     0.005537819620871d0     0.623044572623187d0
Ti1      0.995036926302378d0     0.784166286103004d0     0.637712397556753d0
O1       0.500093721748991d0     0.500084921243389d0     0.186906639369252d0
O1       0.198268504441574d0     0.750236248865719d0     0.238667392858710d0
O1       0.801993766892315d0     0.749987153755059d0     0.238669098461250d0
N1       0.017173218577270d0     0.450820837954701d0     0.741532680135223d0
N1       0.002578357393907d0     0.487825834025344d0     0.694651465061272d0
C1       0.041814088111804d0     0.636245340924041d0     0.780408613372965d0
H1       0.016129736413901d0     0.800839847749693d0     0.762754448048891d0
H1       0.938715947711743d0     0.601712086853310d0     0.812895722687582d0
H1       0.197378469248075d0     0.621498981154396d0     0.794951982729325d0
O1       0.501410141421627d0     0.502170615899092d0     0.719282254225861d0
H1       0.569647640175110d0     0.626088169149893d0     0.736687121871697d0
K_POINTS automatic
4 4 1  0 0 0 
