&CONTROL
  calculation='relax',
  prefix='calc',
  pseudo_dir='/storage/coda1/p-amedford6/0/shared/rich_project_chbe-medford/medford-share/data/pseudos_module/espresso/nninc/pbe/van',
  outdir='.',
  tefield=.true.,
  dipfield=.true.,
  tprnfor=.true.,
  disk_io='none',
/
&SYSTEM
  ibrav=0,
  celldm(1)=1.8897261245650618d0,
  nat=52,
  ntyp=5,
  ecutwfc=29.39945797996531d00,
  ecutrho=293.9945797996531d00,
  nbnd=209,
  occupations='smearing',
  smearing='fd',
  degauss=0.007349864494991328d00,
  input_dft='BEEF-vdW',
  edir=3,
  emaxpos=0.9858030786650458d00,
  eopreg=0.025d00,
  eamp=0.0d00,
  nosym=.false.,
  noinv=.false.,
  nosym_evc=.false.,
  no_t_rev=.false.,
/
&ELECTRONS
  diagonalization='david',
  conv_thr=7.349864494991327e-08,
  mixing_beta=0.05d00,
  electron_maxstep=1000,
  startingpot='file',
  startingwfc='atomic',
/
&IONS
  ion_dynamics='ipi',
/
&CELL
  cell_dynamics='ipi',
/
CELL_PARAMETERS alat
    6.579727202290808d0     0.000000000000000d0     0.000000000000000d0
   -0.000775132442404d0     5.961596420607155d0     0.000000000000000d0
    0.000000000000000d0    -0.000000000000000d0    25.155947251439940d0
ATOMIC_SPECIES
O1 15.999d00 O.UPF
Ti1 47.867d00 Ti.UPF
C1 12.011d00 C.UPF
H1 1.008d00 H.UPF
N1 14.007d00 N.UPF
ATOMIC_POSITIONS {crystal}
O1       0.500093721748991d0     0.000084921243389d0     0.186906639369252d0
O1       0.500093721748991d0     0.500084921243389d0     0.186906639369252d0
Ti1      0.000123603383822d0     0.499897385958537d0     0.238512187198856d0
Ti1      0.000123603383822d0     0.999897385958537d0     0.238512187198856d0
Ti1      0.500142521004230d0     0.250038178055688d0     0.238522014307695d0
Ti1      0.500142521004230d0     0.750038178055688d0     0.238522014307695d0
O1       0.198268504441574d0     0.250236248865719d0     0.238667392858710d0
O1       0.198268504441574d0     0.750236248865719d0     0.238667392858710d0
O1       0.801993766892314d0     0.249987153755059d0     0.238669098461250d0
O1       0.801993766892315d0     0.749987153755059d0     0.238669098461250d0
O1       0.500112315057126d0     0.000084209992886d0     0.290342007718641d0
O1       0.500112315057126d0     0.500084209992886d0     0.290342007718641d0
O1       0.000095322930372d0     0.000084774873452d0     0.317452257936818d0
O1       0.000095322930372d0     0.500084774873452d0     0.317452257936818d0
Ti1      0.498781794415936d0     0.010602429841178d0     0.363874949835618d0
Ti1      0.495441413140979d0     0.509895165402574d0     0.364039872459590d0
Ti1      0.995735811951844d0     0.760606937377665d0     0.368417317711808d0
O1       0.698270105622955d0     0.250236102495782d0     0.369213011426276d0
O1       0.698270105622955d0     0.750236102495782d0     0.369213011426276d0
O1       0.301995368073695d0     0.249987007385122d0     0.369214717028816d0
O1       0.301995368073695d0     0.749987007385122d0     0.369214717028816d0
Ti1      0.996621644743243d0     0.270647548144290d0     0.372254637348011d0
O1       0.000621523058457d0     0.502619710340720d0     0.420261488705049d0
O1       0.000501617414682d0     0.002180535308327d0     0.421719069426890d0
O1       0.501991804681263d0     0.503412860977933d0     0.451173194508452d0
O1       0.502593762791199d0     0.003414733847402d0     0.451185251095763d0
Ti1      0.508944646290315d0     0.254475058501828d0     0.496685719937494d0
Ti1      0.007247407894530d0     0.004746757866015d0     0.497560520825392d0
Ti1      0.508834931906896d0     0.754209452134807d0     0.496518427267336d0
O1       0.197589227837236d0     0.253150967620223d0     0.502512987619064d0
O1       0.805509567095190d0     0.253997923183347d0     0.502774541904351d0
O1       0.197600501020968d0     0.754125677191246d0     0.502637150102005d0
O1       0.805617365510057d0     0.752967655063194d0     0.502925690822298d0
Ti1      0.006216247006927d0     0.504898331801481d0     0.509533967075024d0
O1       0.501867695000324d0     0.503565844792857d0     0.553792238911781d0
O1       0.502205868831310d0     0.004039684467477d0     0.554215595109307d0
O1       0.006521020488222d0     0.504145918139434d0     0.584843648350338d0
O1       0.003231170939019d0     0.004937418883012d0     0.584713587381304d0
Ti1      0.503784838749140d0     0.504739668215711d0     0.625116163518801d0
Ti1      0.505770891056970d0     0.004742096396132d0     0.625488403435453d0
Ti1      0.007303262159856d0     0.772079818789010d0     0.635474615422172d0
O1       0.692287068131296d0     0.754167568927663d0     0.639033263956026d0
O1       0.312569994305178d0     0.752735862043610d0     0.639828353071196d0
O1       0.691750240751117d0     0.255067271367993d0     0.639746508864668d0
O1       0.312463157042165d0     0.256214845808938d0     0.640053467135262d0
Ti1      0.007276165436656d0     0.239909412325330d0     0.638257204263242d0
O1       0.002210404970653d0     0.002897476988272d0     0.684670025811427d0
O1       0.990790366450841d0     0.503121070076982d0     0.691566547519926d0
C1       0.897798617724526d0     0.525390953225610d0     0.738770141548097d0
H1       0.879549535668881d0     0.687710635030437d0     0.757122808111727d0
N1       0.827504306451311d0     0.350342549341314d0     0.763503509124150d0
N1       0.764642591913622d0     0.193611301654194d0     0.784699517960839d0
K_POINTS automatic
4 4 1  0 0 0 
