&CONTROL
  calculation='relax',
  prefix='calc',
  pseudo_dir='/storage/coda1/p-amedford6/0/shared/rich_project_chbe-medford/medford-share/data/pseudos_module/espresso/nninc/pbe/van',
  outdir='.',
  tefield=.true.,
  dipfield=.true.,
  tprnfor=.true.,
  disk_io='none',
/
&SYSTEM
  ibrav=0,
  celldm(1)=1.8897261245650618d0,
  nat=57,
  ntyp=5,
  ecutwfc=29.39945797996531d00,
  ecutrho=293.9945797996531d00,
  nbnd=212,
  occupations='smearing',
  smearing='fd',
  degauss=0.007349864494991328d00,
  input_dft='BEEF-vdW',
  edir=3,
  emaxpos=0.9963869948007742d00,
  eopreg=0.025d00,
  eamp=0.0d00,
  nosym=.false.,
  noinv=.false.,
  nosym_evc=.false.,
  no_t_rev=.false.,
/
&ELECTRONS
  diagonalization='david',
  conv_thr=7.349864494991327e-08,
  mixing_beta=0.05d00,
  electron_maxstep=1000,
  startingpot='file',
  startingwfc='atomic',
/
&IONS
  ion_dynamics='ipi',
/
&CELL
  cell_dynamics='ipi',
/
CELL_PARAMETERS alat
    6.579727202290808d0     0.000000000000000d0     0.000000000000000d0
   -0.000775132442404d0     5.961596420607155d0     0.000000000000000d0
    0.000000000000000d0    -0.000000000000000d0    25.155947251439940d0
ATOMIC_SPECIES
Ti1 47.867d00 Ti.UPF
O1 15.999d00 O.UPF
N1 14.007d00 N.UPF
C1 12.011d00 C.UPF
H1 1.008d00 H.UPF
ATOMIC_POSITIONS {crystal}
Ti1      0.000123603383822d0     0.499897385958536d0     0.238512187198856d0
Ti1      0.500142521004230d0     0.250038178055688d0     0.238522014307695d0
O1       0.000095322930372d0     0.000084774873452d0     0.317452257936818d0
O1       0.500112315057126d0     0.000084209992886d0     0.290342007718641d0
O1       0.698270105622955d0     0.250236102495782d0     0.369213011426276d0
O1       0.301995368073695d0     0.249987007385122d0     0.369214717028816d0
Ti1      0.500198167309398d0     0.485761668506182d0     0.364758343030283d0
Ti1      0.000261424674789d0     0.248709163236136d0     0.368424970923767d0
O1       0.497716957621576d0     0.996361177880567d0     0.451633286425045d0
O1       0.001882992193933d0     0.999479849154423d0     0.422099495650131d0
O1       0.192521231934998d0     0.245896369744719d0     0.502694115990258d0
O1       0.800013121382583d0     0.245646869714667d0     0.502944753949611d0
Ti1      0.003919003827773d0     0.495437041684406d0     0.498920112711630d0
Ti1      0.505149712736475d0     0.244655338587677d0     0.497473574670560d0
O1       0.001123609272896d0     0.996184028346485d0     0.584539362101934d0
O1       0.493631420298072d0     0.996462935984470d0     0.556926846548760d0
O1       0.688549984749486d0     0.255102146207781d0     0.637872889008496d0
O1       0.303317287298826d0     0.251534546815422d0     0.644021988482524d0
Ti1      0.495031032867287d0     0.498185880990129d0     0.623827620427718d0
Ti1      0.987147030629256d0     0.247129434766107d0     0.629843866071865d0
O1       0.500093721748991d0     0.000084921243389d0     0.186906639369252d0
O1       0.979173325055443d0     0.986517930363728d0     0.687012762985445d0
O1       0.198268504441574d0     0.250236248865719d0     0.238667392858710d0
O1       0.801993766892314d0     0.249987153755059d0     0.238669098461250d0
Ti1      0.000123603383822d0     0.999897385958536d0     0.238512187198856d0
Ti1      0.500142521004230d0     0.750038178055688d0     0.238522014307695d0
O1       0.000095322930372d0     0.500084774873452d0     0.317452257936818d0
O1       0.500112315057126d0     0.500084209992886d0     0.290342007718641d0
O1       0.698270105622955d0     0.750236102495782d0     0.369213011426276d0
O1       0.301995368073695d0     0.749987007385122d0     0.369214717028816d0
Ti1      0.500001644927041d0     0.985370751416071d0     0.364779031055315d0
Ti1      0.000183276761494d0     0.748948988039575d0     0.368476322807288d0
O1       0.498561924101956d0     0.496511522581707d0     0.451369207495799d0
O1       0.001460782485842d0     0.499964783615161d0     0.422656139091726d0
O1       0.192543949149976d0     0.746582319219579d0     0.502850186431701d0
O1       0.800283647859329d0     0.746854378023790d0     0.503011156240567d0
Ti1      0.002857119011880d0     0.994656347223061d0     0.497379587204272d0
Ti1      0.505307929557135d0     0.745722396973627d0     0.497275678587603d0
O1       0.000489456283849d0     0.491567001975532d0     0.587148901155586d0
O1       0.492012036754780d0     0.497059018891699d0     0.553083177449416d0
O1       0.687942072006727d0     0.734449011684510d0     0.640039938885816d0
O1       0.304323818200666d0     0.742854048742250d0     0.643369429026916d0
Ti1      0.493351983593614d0     0.996776084098492d0     0.629210654240384d0
Ti1      0.999045773989064d0     0.773926000054321d0     0.637805484508445d0
O1       0.500093721748991d0     0.500084921243389d0     0.186906639369252d0
O1       0.198268504441574d0     0.750236248865719d0     0.238667392858710d0
O1       0.801993766892315d0     0.749987153755059d0     0.238669098461250d0
N1       0.145452469126316d0     0.434110920011997d0     0.734810052093692d0
N1       0.990761151851172d0     0.475759962031258d0     0.701084990903223d0
C1       0.162049902865054d0     0.480418794884317d0     0.785353452141977d0
H1       0.295467621755232d0     0.423343811596683d0     0.805867350232296d0
H1       0.042772017753476d0     0.573849261075934d0     0.805153717720941d0
H1       0.258625153261997d0     0.346496408630198d0     0.715493710743660d0
H1       0.862448804266255d0     0.507847104952487d0     0.722415916006560d0
O1       0.571737290781651d0     0.021760553273710d0     0.727759924255024d0
H1       0.719337817542784d0     0.009091444373353d0     0.720662108180879d0
H1       0.530406983939701d0     0.878768065978649d0     0.742521007257017d0
K_POINTS automatic
4 4 1  0 0 0 
