&CONTROL
  calculation='relax',
  prefix='calc',
  pseudo_dir='/storage/coda1/p-amedford6/0/shared/rich_project_chbe-medford/medford-share/data/pseudos_module/espresso/nninc/pbe/van',
  outdir='.',
  tefield=.true.,
  dipfield=.true.,
  tprnfor=.true.,
  disk_io='none',
/
&SYSTEM
  ibrav=0,
  celldm(1)=1.8897261245650618d0,
  nat=55,
  ntyp=5,
  ecutwfc=29.39945797996531d00,
  ecutrho=293.9945797996531d00,
  nbnd=208,
  occupations='smearing',
  smearing='fd',
  degauss=0.007349864494991328d00,
  input_dft='BEEF-vdW',
  edir=3,
  emaxpos=0.9836906343607175d00,
  eopreg=0.025d00,
  eamp=0.0d00,
  nosym=.false.,
  noinv=.false.,
  nosym_evc=.false.,
  no_t_rev=.false.,
/
&ELECTRONS
  diagonalization='david',
  conv_thr=7.349864494991327e-08,
  mixing_beta=0.05d00,
  electron_maxstep=1000,
  startingwfc='atomic',
/
&IONS
  ion_dynamics='ipi',
/
&CELL
  cell_dynamics='ipi',
/
CELL_PARAMETERS alat
    6.579727202290808d0     0.000000000000000d0     0.000000000000000d0
   -0.000775132442404d0     5.961596420607155d0     0.000000000000000d0
    0.000000000000000d0    -0.000000000000000d0    25.155947251439940d0
ATOMIC_SPECIES
Ti1 47.867d00 Ti.UPF
O1 15.999d00 O.UPF
N1 14.007d00 N.UPF
C1 12.011d00 C.UPF
H1 1.008d00 H.UPF
ATOMIC_POSITIONS {crystal}
Ti1      0.000123603383822d0     0.499897385958536d0     0.238512187198856d0
Ti1      0.500142521004230d0     0.250038178055688d0     0.238522014307695d0
O1       0.000095322930372d0     0.000084774873452d0     0.317452257936818d0
O1       0.500112315057126d0     0.000084209992886d0     0.290342007718641d0
O1       0.698270105622955d0     0.250236102495782d0     0.369213011426276d0
O1       0.301995368073695d0     0.249987007385122d0     0.369214717028816d0
Ti1      0.500198167309398d0     0.485761668506182d0     0.364758343030283d0
Ti1      0.000261424674789d0     0.248709163236136d0     0.368424970923767d0
O1       0.497327766148539d0     0.003118775398843d0     0.452129682008943d0
O1       0.001882992193933d0     0.999479849154423d0     0.422099495650131d0
O1       0.192806337660915d0     0.253089252924190d0     0.504602614304896d0
O1       0.801165154191169d0     0.254457513643525d0     0.503119876302367d0
Ti1      0.999262695970318d0     0.501618035373037d0     0.497199662519911d0
Ti1      0.502074764359689d0     0.250527478710541d0     0.498053188180599d0
O1       0.988952679912256d0     0.993708274917923d0     0.582968019911385d0
O1       0.499970941727526d0     0.003488272553280d0     0.556512365642596d0
O1       0.684781429472822d0     0.262194257347901d0     0.643141780507983d0
O1       0.301101963905226d0     0.261207329794725d0     0.641380663774392d0
Ti1      0.493002144562950d0     0.508156885091822d0     0.626059591385644d0
Ti1      0.991957903395192d0     0.224746221797574d0     0.629578809168637d0
O1       0.500093721748991d0     0.000084921243389d0     0.186906639369252d0
O1       0.995523568072861d0     0.032462244159021d0     0.685375432837808d0
O1       0.198268504441574d0     0.250236248865719d0     0.238667392858710d0
O1       0.801993766892314d0     0.249987153755059d0     0.238669098461250d0
Ti1      0.000123603383822d0     0.999897385958536d0     0.238512187198856d0
Ti1      0.500142521004230d0     0.750038178055688d0     0.238522014307695d0
O1       0.000095322930372d0     0.500084774873452d0     0.317452257936818d0
O1       0.500112315057126d0     0.500084209992886d0     0.290342007718641d0
O1       0.698270105622955d0     0.750236102495782d0     0.369213011426276d0
O1       0.301995368073695d0     0.749987007385122d0     0.369214717028816d0
Ti1      0.500001644927041d0     0.985370751416071d0     0.364779031055315d0
Ti1      0.000183276761494d0     0.748948988039575d0     0.368476322807288d0
O1       0.496447632204642d0     0.500818355732109d0     0.451681334242538d0
O1       0.001460782485842d0     0.499964783615161d0     0.422656139091726d0
O1       0.193524305786878d0     0.752368146775784d0     0.503494825349415d0
O1       0.801063473166810d0     0.751610850905437d0     0.501866265021024d0
Ti1      0.002624658340471d0     0.999389894034416d0     0.496685256860577d0
Ti1      0.502111618262906d0     0.749982904282998d0     0.497227094737098d0
O1       0.990174402746893d0     0.513049564761929d0     0.593554927807993d0
O1       0.498828158480759d0     0.506940063428403d0     0.555023594436733d0
O1       0.681055667183358d0     0.755511824383275d0     0.645807307999852d0
O1       0.298533406404608d0     0.755272700385030d0     0.643094494380149d0
Ti1      0.495720390447185d0     0.007494489572247d0     0.627918379792920d0
Ti1      0.000764846018341d0     0.763864755298633d0     0.636010001946953d0
O1       0.500093721748991d0     0.500084921243389d0     0.186906639369252d0
O1       0.198268504441574d0     0.750236248865719d0     0.238667392858710d0
O1       0.801993766892315d0     0.749987153755059d0     0.238669098461250d0
N1       0.107934836288580d0     0.454340792218364d0     0.747957105033186d0
N1       0.955600572063721d0     0.574300437423183d0     0.718160284550401d0
C1       0.262683650227612d0     0.572131071343880d0     0.769683646682548d0
H1       0.237807459419405d0     0.745585674533543d0     0.780474629352182d0
H1       0.399758687483273d0     0.483332220964106d0     0.779649405722133d0
H1       0.137147101770699d0     0.304479308385970d0     0.730185187537642d0
H1       0.927911881849638d0     0.722635275008324d0     0.737629663764353d0
H1       0.825257476926274d0     0.482222520820247d0     0.719321907616511d0
K_POINTS automatic
4 4 1  0 0 0 
