&CONTROL
  calculation='relax',
  prefix='calc',
  pseudo_dir='/storage/coda1/p-amedford6/0/shared/rich_project_chbe-medford/medford-share/data/pseudos_module/espresso/nninc/pbe/van',
  outdir='.',
  tefield=.true.,
  dipfield=.true.,
  tprnfor=.true.,
  disk_io='none',
/
&SYSTEM
  ibrav=0,
  celldm(1)=1.8897261245650618d0,
  nat=53,
  ntyp=5,
  ecutwfc=29.39945797996531d00,
  ecutrho=293.9945797996531d00,
  nbnd=207,
  occupations='smearing',
  smearing='fd',
  degauss=0.007349864494991328d00,
  input_dft='BEEF-vdW',
  edir=3,
  emaxpos=0.9856818826312566d00,
  eopreg=0.025d00,
  eamp=0.0d00,
  nosym=.false.,
  noinv=.false.,
  nosym_evc=.false.,
  no_t_rev=.false.,
/
&ELECTRONS
  diagonalization='david',
  conv_thr=7.349864494991327e-08,
  mixing_beta=0.05d00,
  electron_maxstep=1000,
  startingwfc='atomic',
/
&IONS
  ion_dynamics='ipi',
/
&CELL
  cell_dynamics='ipi',
/
CELL_PARAMETERS alat
    6.579727202290808d0     0.000000000000000d0     0.000000000000000d0
   -0.000775132442404d0     5.961596420607155d0     0.000000000000000d0
    0.000000000000000d0    -0.000000000000000d0    25.155947251439940d0
ATOMIC_SPECIES
Ti1 47.867d00 Ti.UPF
O1 15.999d00 O.UPF
N1 14.007d00 N.UPF
C1 12.011d00 C.UPF
H1 1.008d00 H.UPF
ATOMIC_POSITIONS {crystal}
Ti1      0.000123603383822d0     0.499897385958536d0     0.238512187198856d0
Ti1      0.500142521004230d0     0.250038178055688d0     0.238522014307695d0
O1       0.000095322930372d0     0.000084774873452d0     0.317452257936818d0
O1       0.500112315057126d0     0.000084209992886d0     0.290342007718641d0
O1       0.698270105622955d0     0.250236102495782d0     0.369213011426276d0
O1       0.301995368073695d0     0.249987007385122d0     0.369214717028816d0
Ti1      0.500198167309398d0     0.485761668506182d0     0.364758343030283d0
Ti1      0.000261424674789d0     0.248709163236136d0     0.368424970923767d0
O1       0.497216491018847d0     0.998800618048691d0     0.450485496739272d0
O1       0.001882992193933d0     0.999479849154423d0     0.422099495650131d0
O1       0.192918729983475d0     0.250169100947689d0     0.502083300153576d0
O1       0.798550152237157d0     0.248860829228712d0     0.501271307727253d0
Ti1      0.005190620816108d0     0.506133565205555d0     0.502751383599679d0
Ti1      0.510143149719093d0     0.249746724782060d0     0.496131780144794d0
O1       0.993615202381321d0     0.000958072258276d0     0.580672952359209d0
O1       0.496117012075600d0     0.997066684182565d0     0.553542817458519d0
O1       0.683974487693454d0     0.247106126805856d0     0.637971948524066d0
O1       0.304716704864552d0     0.247099093872649d0     0.638167086058982d0
Ti1      0.493402290294399d0     0.495458851040784d0     0.624138489893871d0
Ti1      0.993233970515544d0     0.230194863499883d0     0.628399256706553d0
O1       0.500093721748991d0     0.000084921243389d0     0.186906639369252d0
O1       0.996538255489144d0     0.998324645758529d0     0.681191317701150d0
O1       0.198268504441574d0     0.250236248865719d0     0.238667392858710d0
O1       0.801993766892314d0     0.249987153755059d0     0.238669098461250d0
Ti1      0.000123603383822d0     0.999897385958536d0     0.238512187198856d0
Ti1      0.500142521004230d0     0.750038178055688d0     0.238522014307695d0
O1       0.000095322930372d0     0.500084774873452d0     0.317452257936818d0
O1       0.500112315057126d0     0.500084209992886d0     0.290342007718641d0
O1       0.698270105622955d0     0.750236102495782d0     0.369213011426276d0
O1       0.301995368073695d0     0.749987007385122d0     0.369214717028816d0
Ti1      0.500001644927041d0     0.985370751416071d0     0.364779031055315d0
Ti1      0.000183276761494d0     0.748948988039575d0     0.368476322807288d0
O1       0.497474655899413d0     0.499260802400030d0     0.450428008754087d0
O1       0.001460782485842d0     0.499964783615161d0     0.422656139091726d0
O1       0.192632773535093d0     0.749901615181224d0     0.502441782615001d0
O1       0.799066933547274d0     0.748469522347157d0     0.501505823422540d0
Ti1      0.007800732892908d0     0.005003464150790d0     0.498407693868413d0
Ti1      0.510019756341941d0     0.749414889073890d0     0.496295671130067d0
O1       0.995547039722266d0     0.496548499674785d0     0.584524844432264d0
O1       0.496364218302449d0     0.498311249785766d0     0.552769789462125d0
O1       0.684229292666996d0     0.743597333176134d0     0.639391882301149d0
O1       0.305563460146836d0     0.744220620976814d0     0.639036719202153d0
Ti1      0.493731326138461d0     0.995917967815546d0     0.625065721894479d0
Ti1      0.992483483121572d0     0.749451008046277d0     0.642005169389160d0
O1       0.500093721748991d0     0.500084921243389d0     0.186906639369252d0
O1       0.198268504441574d0     0.750236248865719d0     0.238667392858710d0
O1       0.801993766892315d0     0.749987153755059d0     0.238669098461250d0
N1       0.447191564677485d0     0.009852608383371d0     0.758232450903006d0
C1       0.992535673457592d0     0.508029270883661d0     0.708414175661157d0
H1       0.893808927455964d0     0.624955325879686d0     0.730011111790471d0
H1       0.929368536338588d0     0.343295553618574d0     0.717661277082365d0
H1       0.143479994031068d0     0.516645058285895d0     0.726304673127094d0
N1       0.323126813397905d0     0.952165155201580d0     0.784457125893261d0
K_POINTS automatic
4 4 1  0 0 0 
