&CONTROL
  calculation='relax',
  prefix='calc',
  pseudo_dir='/storage/coda1/p-amedford6/0/shared/rich_project_chbe-medford/medford-share/data/pseudos_module/espresso/nninc/pbe/van',
  outdir='.',
  tefield=.true.,
  dipfield=.true.,
  tprnfor=.true.,
  disk_io='none',
/
&SYSTEM
  ibrav=0,
  celldm(1)=1.8897261245650618d0,
  nat=57,
  ntyp=5,
  ecutwfc=29.39945797996531d00,
  ecutrho=293.9945797996531d00,
  nbnd=212,
  occupations='smearing',
  smearing='fd',
  degauss=0.007349864494991328d00,
  input_dft='BEEF-vdW',
  edir=3,
  emaxpos=0.0027061562810977158d00,
  eopreg=0.025d00,
  eamp=0.0d00,
  nosym=.false.,
  noinv=.false.,
  nosym_evc=.false.,
  no_t_rev=.false.,
/
&ELECTRONS
  diagonalization='david',
  conv_thr=7.349864494991327e-08,
  mixing_beta=0.05d00,
  electron_maxstep=1000,
  startingpot='file',
  startingwfc='atomic',
/
&IONS
  ion_dynamics='ipi',
/
&CELL
  cell_dynamics='ipi',
/
CELL_PARAMETERS alat
    6.579727202290808d0     0.000000000000000d0     0.000000000000000d0
   -0.000775132442404d0     5.961596420607155d0     0.000000000000000d0
    0.000000000000000d0    -0.000000000000000d0    25.155947251439940d0
ATOMIC_SPECIES
Ti1 47.867d00 Ti.UPF
O1 15.999d00 O.UPF
N1 14.007d00 N.UPF
C1 12.011d00 C.UPF
H1 1.008d00 H.UPF
ATOMIC_POSITIONS {crystal}
Ti1      0.000123603383822d0     0.499897385958536d0     0.238512187198856d0
Ti1      0.500142521004230d0     0.250038178055688d0     0.238522014307695d0
O1       0.000095322930372d0     0.000084774873452d0     0.317452257936818d0
O1       0.500112315057126d0     0.000084209992886d0     0.290342007718641d0
O1       0.698270105622955d0     0.250236102495782d0     0.369213011426276d0
O1       0.301995368073695d0     0.249987007385122d0     0.369214717028816d0
Ti1      0.500198167309398d0     0.485761668506182d0     0.364758343030283d0
Ti1      0.000261424674789d0     0.248709163236136d0     0.368424970923767d0
O1       0.499213116952766d0     0.002759125079448d0     0.449880638744516d0
O1       0.001882992193933d0     0.999479849154423d0     0.422099495650131d0
O1       0.194273129405184d0     0.251054735753290d0     0.501783252713899d0
O1       0.800536001980556d0     0.251974898595183d0     0.501029253638273d0
Ti1      0.012439503302267d0     0.498253013186534d0     0.501242505258237d0
Ti1      0.516525817758734d0     0.252317212451831d0     0.495924923461081d0
O1       0.997300452613737d0     0.999772369567202d0     0.581359312333733d0
O1       0.499218048249309d0     0.001974898027374d0     0.552917811296866d0
O1       0.685888961862970d0     0.258976932337163d0     0.635579902999816d0
O1       0.307726861222159d0     0.259771421027554d0     0.635497260558451d0
Ti1      0.496712824066686d0     0.508119540163220d0     0.622625389573451d0
Ti1      0.994567469559780d0     0.264876502643910d0     0.628228348096007d0
O1       0.500093721748991d0     0.000084921243389d0     0.186906639369252d0
O1       0.997255935793676d0     0.006877221553862d0     0.685594679011959d0
O1       0.198268504441574d0     0.250236248865719d0     0.238667392858710d0
O1       0.801993766892314d0     0.249987153755059d0     0.238669098461250d0
Ti1      0.000123603383822d0     0.999897385958536d0     0.238512187198856d0
Ti1      0.500142521004230d0     0.750038178055688d0     0.238522014307695d0
O1       0.000095322930372d0     0.500084774873452d0     0.317452257936818d0
O1       0.500112315057126d0     0.500084209992886d0     0.290342007718641d0
O1       0.698270105622955d0     0.750236102495782d0     0.369213011426276d0
O1       0.301995368073695d0     0.749987007385122d0     0.369214717028816d0
Ti1      0.500001644927041d0     0.985370751416071d0     0.364779031055315d0
Ti1      0.000183276761494d0     0.748948988039575d0     0.368476322807288d0
O1       0.499878586198765d0     0.502468112652709d0     0.449889749593140d0
O1       0.001460782485842d0     0.499964783615161d0     0.422656139091726d0
O1       0.194191594458514d0     0.750890894786696d0     0.501672168078542d0
O1       0.801278804792152d0     0.752479296626190d0     0.500839339184662d0
Ti1      0.011047091460851d0     0.996673528597788d0     0.502501292350627d0
Ti1      0.516968736439224d0     0.754288665033346d0     0.496184195055250d0
O1       0.997573776370467d0     0.500722937995641d0     0.581291334780034d0
O1       0.498654133091612d0     0.505436382141121d0     0.551108604061502d0
O1       0.684834855390955d0     0.752182146288691d0     0.639024256526130d0
O1       0.308428484151851d0     0.752256533664701d0     0.638288015963020d0
Ti1      0.495237238303271d0     0.010203074356683d0     0.626074547234988d0
Ti1      0.996426854637768d0     0.777109255424981d0     0.641450743000518d0
O1       0.500093721748991d0     0.500084921243389d0     0.186906639369252d0
O1       0.198268504441574d0     0.750236248865719d0     0.238667392858710d0
O1       0.801993766892315d0     0.749987153755059d0     0.238669098461250d0
N1       0.981585395550625d0     0.440540387318123d0     0.738330913883821d0
N1       0.995446547975145d0     0.494774944502149d0     0.688120693970665d0
C1       0.024400422002912d0     0.597096324503787d0     0.780950218764556d0
H1       0.941038068971555d0     0.752786324777277d0     0.774168897258100d0
H1       0.978847928916759d0     0.521345538132524d0     0.818505673192943d0
H1       0.187140849406974d0     0.638247898106561d0     0.782940273651965d0
H1       0.988596552041087d0     0.272637199864328d0     0.746170893678580d0
O1       0.492664045793895d0     0.012671297478517d0     0.723685301042274d0
H1       0.609693131119514d0     0.915981369578663d0     0.729088146149407d0
H1       0.372990310247868d0     0.919276522071942d0     0.728419293200635d0
K_POINTS automatic
4 4 1  0 0 0 
