&CONTROL
  calculation='relax',
  prefix='calc',
  pseudo_dir='/storage/coda1/p-amedford6/0/shared/rich_project_chbe-medford/medford-share/data/pseudos_module/espresso/nninc/pbe/van',
  outdir='.',
  tefield=.true.,
  dipfield=.true.,
  tprnfor=.true.,
  disk_io='none',
/
&SYSTEM
  ibrav=0,
  celldm(1)=1.8897261245650618d0,
  nat=55,
  ntyp=5,
  ecutwfc=29.39945797996531d00,
  ecutrho=293.9945797996531d00,
  nbnd=211,
  occupations='smearing',
  smearing='fd',
  degauss=0.007349864494991328d00,
  input_dft='BEEF-vdW',
  edir=3,
  emaxpos=0.005425142090343504d00,
  eopreg=0.025d00,
  eamp=0.0d00,
  nosym=.false.,
  noinv=.false.,
  nosym_evc=.false.,
  no_t_rev=.false.,
/
&ELECTRONS
  diagonalization='david',
  conv_thr=7.349864494991327e-08,
  mixing_beta=0.05d00,
  electron_maxstep=1000,
  startingwfc='atomic',
/
&IONS
  ion_dynamics='ipi',
/
&CELL
  cell_dynamics='ipi',
/
CELL_PARAMETERS alat
    6.579727202290808d0     0.000000000000000d0     0.000000000000000d0
   -0.000775132442404d0     5.961596420607155d0     0.000000000000000d0
    0.000000000000000d0    -0.000000000000000d0    25.155947251439940d0
ATOMIC_SPECIES
Ti1 47.867d00 Ti.UPF
O1 15.999d00 O.UPF
C1 12.011d00 C.UPF
H1 1.008d00 H.UPF
N1 14.007d00 N.UPF
ATOMIC_POSITIONS {crystal}
Ti1      0.000123603383822d0     0.499897385958537d0     0.238512187198856d0
Ti1      0.500142521004230d0     0.250038178055688d0     0.238522014307695d0
O1       0.000095322930372d0     0.000084774873452d0     0.317452257936818d0
O1       0.500112315057126d0     0.000084209992886d0     0.290342007718641d0
O1       0.698270105622955d0     0.250236102495782d0     0.369213011426276d0
O1       0.301995368073695d0     0.249987007385122d0     0.369214717028816d0
Ti1      0.498853241562453d0     0.495348188950692d0     0.363955456931205d0
Ti1      0.997186054254543d0     0.246099925895637d0     0.368124720689223d0
O1       0.509815459308001d0     0.995421146430958d0     0.452871088141328d0
O1       0.001595173936161d0     0.998326155242947d0     0.421772785100838d0
O1       0.205340362320307d0     0.249927352318195d0     0.501568065861096d0
O1       0.814705446906382d0     0.244828295563781d0     0.504575072577748d0
Ti1      0.008455041075998d0     0.497163974433354d0     0.497037268754870d0
Ti1      0.505061558515867d0     0.244084939568334d0     0.498952931910744d0
O1       0.033607192397245d0     0.005206974040722d0     0.582518730469960d0
O1       0.496457919904508d0     0.996659217599983d0     0.556507890620449d0
O1       0.717526962583307d0     0.229905245749504d0     0.627519828490278d0
O1       0.330203593384175d0     0.252731244773663d0     0.646517950078750d0
Ti1      0.523348138942244d0     0.504372168832076d0     0.628110104722249d0
Ti1      0.038662783980648d0     0.230424093248005d0     0.636841728285296d0
O1       0.500093721748991d0     0.000084921243389d0     0.186906639369252d0
O1       0.020390767523982d0     0.979157446840809d0     0.683097088314126d0
O1       0.198268504441574d0     0.250236248865719d0     0.238667392858710d0
O1       0.801993766892314d0     0.249987153755059d0     0.238669098461250d0
Ti1      0.000123603383822d0     0.999897385958537d0     0.238512187198856d0
Ti1      0.500142521004230d0     0.750038178055688d0     0.238522014307695d0
O1       0.000095322930372d0     0.500084774873452d0     0.317452257936818d0
O1       0.500112315057126d0     0.500084209992886d0     0.290342007718641d0
O1       0.698270105622955d0     0.750236102495782d0     0.369213011426276d0
O1       0.301995368073695d0     0.749987007385122d0     0.369214717028816d0
Ti1      0.499805959469781d0     0.995793000116582d0     0.364113028931528d0
Ti1      0.997561533175118d0     0.744773329230374d0     0.368059766822199d0
O1       0.512923212509645d0     0.495350701653762d0     0.452125505202470d0
O1       0.000555905966453d0     0.499429756198531d0     0.422388754695321d0
O1       0.206267711475443d0     0.742416390131198d0     0.502282189377333d0
O1       0.814851986063166d0     0.748180424666723d0     0.505628888269457d0
Ti1      0.005591077950129d0     0.998287156362721d0     0.496608600581642d0
Ti1      0.504911803003422d0     0.741193873022978d0     0.497821468100529d0
O1       0.021865655479059d0     0.491392490836792d0     0.594561411628457d0
O1       0.509065779162968d0     0.496909448211434d0     0.555492459361625d0
O1       0.706212892219416d0     0.758293619188282d0     0.636683804000259d0
O1       0.320219178867661d0     0.732768412014262d0     0.643387795542890d0
Ti1      0.492469211948871d0     0.982658131571382d0     0.627720912562616d0
Ti1      0.006150948237111d0     0.773187919375561d0     0.628698966422170d0
O1       0.500093721748991d0     0.500084921243389d0     0.186906639369252d0
O1       0.198268504441574d0     0.750236248865719d0     0.238667392858710d0
O1       0.801993766892315d0     0.749987153755059d0     0.238669098461250d0
C1       0.686886682056791d0     0.442309265428742d0     0.789634461207909d0
O1       0.559281021463605d0     0.298263270971615d0     0.757314426657381d0
H1       0.593708284727825d0     0.487045498927313d0     0.823943644811435d0
H1       0.790205257009099d0     0.098482494221879d0     0.736996795444869d0
H1       0.822956530724260d0     0.354662296517773d0     0.803107135900588d0
H1       0.731765326467786d0     0.592162706960320d0     0.767366634780565d0
N1       0.673337091759970d0     0.177842182271875d0     0.717734726983543d0
N1       0.758667081122701d0     0.330827723958680d0     0.680380251809127d0
K_POINTS automatic
4 4 1  0 0 0 
