&CONTROL
  calculation='relax',
  prefix='calc',
  pseudo_dir='/storage/coda1/p-amedford6/0/shared/rich_project_chbe-medford/medford-share/data/pseudos_module/espresso/nninc/pbe/van',
  outdir='.',
  tefield=.true.,
  dipfield=.true.,
  tprnfor=.true.,
  disk_io='none',
/
&SYSTEM
  ibrav=0,
  celldm(1)=1.8897261245650618d0,
  nat=55,
  ntyp=5,
  ecutwfc=29.39945797996531d00,
  ecutrho=293.9945797996531d00,
  nbnd=211,
  occupations='smearing',
  smearing='fd',
  degauss=0.007349864494991328d00,
  input_dft='BEEF-vdW',
  edir=3,
  emaxpos=0.9893305918089317d00,
  eopreg=0.025d00,
  eamp=0.0d00,
  nosym=.false.,
  noinv=.false.,
  nosym_evc=.false.,
  no_t_rev=.false.,
/
&ELECTRONS
  diagonalization='david',
  conv_thr=7.349864494991327e-08,
  mixing_beta=0.05d00,
  electron_maxstep=1000,
  startingwfc='atomic',
/
&IONS
  ion_dynamics='ipi',
/
&CELL
  cell_dynamics='ipi',
/
CELL_PARAMETERS alat
    6.579727202290808d0     0.000000000000000d0     0.000000000000000d0
   -0.000775132442404d0     5.961596420607155d0     0.000000000000000d0
    0.000000000000000d0    -0.000000000000000d0    25.155947251439940d0
ATOMIC_SPECIES
Ti1 47.867d00 Ti.UPF
O1 15.999d00 O.UPF
C1 12.011d00 C.UPF
H1 1.008d00 H.UPF
N1 14.007d00 N.UPF
ATOMIC_POSITIONS {crystal}
Ti1      0.000123603383822d0     0.499897385958537d0     0.238512187198856d0
Ti1      0.500142521004230d0     0.250038178055688d0     0.238522014307695d0
O1       0.000095322930372d0     0.000084774873452d0     0.317452257936818d0
O1       0.500112315057126d0     0.000084209992886d0     0.290342007718641d0
O1       0.698270105622955d0     0.250236102495782d0     0.369213011426276d0
O1       0.301995368073695d0     0.249987007385122d0     0.369214717028816d0
Ti1      0.504522703347606d0     0.497343505744498d0     0.364006871294356d0
Ti1      0.006032562149770d0     0.250315125336836d0     0.368119650301131d0
O1       0.499315658948271d0     0.005993585413314d0     0.452086691927957d0
O1       0.000280270572863d0     0.001900367156956d0     0.421735373646862d0
O1       0.194139967542298d0     0.253570609096018d0     0.504696391009819d0
O1       0.803724471338613d0     0.253750134814355d0     0.504487276823062d0
Ti1      0.999285697923371d0     0.504011346995667d0     0.496615106526369d0
Ti1      0.499593134591632d0     0.255201279309562d0     0.497905852829870d0
O1       0.996997853187599d0     0.984474672650928d0     0.583643243058928d0
O1       0.498773038008135d0     0.001363422108936d0     0.555852929137867d0
O1       0.688771908591056d0     0.258271296450621d0     0.640103523809678d0
O1       0.305994170241961d0     0.258131185887554d0     0.639861292685576d0
Ti1      0.497173116351107d0     0.507576979473423d0     0.626326343150477d0
Ti1      0.996225540268248d0     0.226483365179964d0     0.627279708001919d0
O1       0.500093721748991d0     0.000084921243389d0     0.186906639369252d0
O1       0.997811008679587d0     0.033755813237557d0     0.684455691724137d0
O1       0.198268504441574d0     0.250236248865719d0     0.238667392858710d0
O1       0.801993766892314d0     0.249987153755059d0     0.238669098461250d0
Ti1      0.000123603383822d0     0.999897385958537d0     0.238512187198856d0
Ti1      0.500142521004230d0     0.750038178055688d0     0.238522014307695d0
O1       0.000095322930372d0     0.500084774873452d0     0.317452257936818d0
O1       0.500112315057126d0     0.500084209992886d0     0.290342007718641d0
O1       0.698270105622955d0     0.750236102495782d0     0.369213011426276d0
O1       0.301995368073695d0     0.749987007385122d0     0.369214717028816d0
Ti1      0.504537165703855d0     0.997713843389344d0     0.363947780626858d0
Ti1      0.006036086581358d0     0.750441436657291d0     0.368039705599947d0
O1       0.499189260220742d0     0.502243560497404d0     0.451908908906354d0
O1       0.000343320936800d0     0.499785410735871d0     0.422363545011280d0
O1       0.194709480657428d0     0.751982906701049d0     0.502388070007009d0
O1       0.803187722576094d0     0.751750964264467d0     0.502165287435431d0
Ti1      0.999691401720045d0     0.001387950011087d0     0.496299336250163d0
Ti1      0.499698895636276d0     0.755040702614886d0     0.497501848841855d0
O1       0.997758941686082d0     0.514418945571594d0     0.595157085110943d0
O1       0.498773969334373d0     0.509107418479100d0     0.555127012216236d0
O1       0.688794896950780d0     0.756093349945535d0     0.644574929621337d0
O1       0.306474060581045d0     0.756511279965837d0     0.644293479383206d0
Ti1      0.496799561223568d0     0.007036114224228d0     0.627395277497580d0
Ti1      0.996734473981722d0     0.767872420033302d0     0.639535075421854d0
O1       0.500093721748991d0     0.500084921243389d0     0.186906639369252d0
O1       0.198268504441574d0     0.750236248865719d0     0.238667392858710d0
O1       0.801993766892315d0     0.749987153755059d0     0.238669098461250d0
C1       0.997150286836895d0     0.619754808552458d0     0.769856209435565d0
O1       0.000512199705926d0     0.525888567055132d0     0.716946242626121d0
H1       0.995943068903009d0     0.800560198002848d0     0.765248611636986d0
H1       0.002387315328795d0     0.362352414785286d0     0.720198146174696d0
H1       0.860743267753933d0     0.564940035992795d0     0.790901661852429d0
H1       0.132515592966247d0     0.567718595244888d0     0.791754544248611d0
N1       0.496799561223568d0     0.007036114224228d0     0.758576980456951d0
N1       0.496799561223568d0     0.007036114224228d0     0.713657980241790d0
K_POINTS automatic
4 4 1  0 0 0 
