&CONTROL
  calculation='relax',
  prefix='calc',
  pseudo_dir='/storage/coda1/p-amedford6/0/shared/rich_project_chbe-medford/medford-share/data/pseudos_module/espresso/nninc/pbe/van',
  outdir='.',
  tefield=.true.,
  dipfield=.true.,
  tprnfor=.true.,
  disk_io='none',
/
&SYSTEM
  ibrav=0,
  celldm(1)=1.8897261245650618d0,
  nat=50,
  ntyp=4,
  ecutwfc=29.39945797996531d00,
  ecutrho=293.9945797996531d00,
  nbnd=204,
  occupations='smearing',
  smearing='fd',
  degauss=0.007349864494991328d00,
  input_dft='BEEF-vdW',
  edir=3,
  emaxpos=0.9709694732384587d00,
  eopreg=0.025d00,
  eamp=0.0d00,
  nosym=.false.,
  noinv=.false.,
  nosym_evc=.false.,
  no_t_rev=.false.,
/
&ELECTRONS
  diagonalization='david',
  conv_thr=7.349864494991327e-08,
  mixing_beta=0.05d00,
  electron_maxstep=1000,
  startingwfc='atomic',
/
&IONS
  ion_dynamics='ipi',
/
&CELL
  cell_dynamics='ipi',
/
CELL_PARAMETERS alat
    6.579727202290808d0     0.000000000000000d0     0.000000000000000d0
   -0.000775132442404d0     5.961596420607155d0     0.000000000000000d0
    0.000000000000000d0    -0.000000000000000d0    25.155947251439937d0
ATOMIC_SPECIES
Ti1 47.867d00 Ti.UPF
O1 15.999d00 O.UPF
N1 14.007d00 N.UPF
H1 1.008d00 H.UPF
ATOMIC_POSITIONS {crystal}
Ti1      0.000123603383822d0     0.499897385958537d0     0.238512187198856d0
Ti1      0.500142521004230d0     0.250038178055688d0     0.238522014307695d0
O1       0.000095322930372d0     0.000084774873452d0     0.317452257936818d0
O1       0.500112315057126d0     0.000084209992886d0     0.290342007718641d0
O1       0.698270105622955d0     0.250236102495782d0     0.369213011426276d0
O1       0.301995368073694d0     0.249987007385122d0     0.369214717028816d0
Ti1      0.500114369726805d0     0.509473890706971d0     0.364124314951868d0
Ti1      0.000274375249313d0     0.265174295248705d0     0.371734887872299d0
O1       0.500471912926055d0     0.002553455066344d0     0.450702502175210d0
O1       0.000193218899376d0     0.001676775050786d0     0.421187813908243d0
O1       0.197171330818287d0     0.253118255343249d0     0.501665363355596d0
O1       0.803459830371357d0     0.252997034642131d0     0.501678015772308d0
Ti1      0.000967260096296d0     0.506772445376994d0     0.506722689494938d0
Ti1      0.501371820837980d0     0.253172822675561d0     0.496284894824159d0
O1       0.000542688905791d0     0.003179749496830d0     0.581421929745385d0
O1       0.500185500607827d0     0.003110511233858d0     0.554229913334367d0
O1       0.690222241673070d0     0.254787881330104d0     0.639629740490861d0
O1       0.310277417896223d0     0.254594115002152d0     0.639470653971051d0
Ti1      0.499550685507622d0     0.502588021591097d0     0.624615625792004d0
Ti1      0.998591485868484d0     0.226067161360216d0     0.636251485491857d0
O1       0.500093721748991d0     0.000084921243389d0     0.186906639369252d0
O1       0.000221336519044d0     0.006355501682692d0     0.683517004277991d0
O1       0.198268504441573d0     0.250236248865719d0     0.238667392858710d0
O1       0.801993766892314d0     0.249987153755059d0     0.238669098461250d0
Ti1      0.000123603383822d0     0.999897385958537d0     0.238512187198856d0
Ti1      0.500142521004230d0     0.750038178055688d0     0.238522014307695d0
O1       0.000095322930372d0     0.500084774873452d0     0.317452257936818d0
O1       0.500112315057126d0     0.500084209992886d0     0.290342007718641d0
O1       0.698270105622955d0     0.750236102495782d0     0.369213011426276d0
O1       0.301995368073694d0     0.749987007385122d0     0.369214717028816d0
Ti1      0.500108399194538d0     0.009795758667739d0     0.364067725048489d0
Ti1      0.000277574072137d0     0.759448785465723d0     0.369833780093069d0
O1       0.500449429110604d0     0.502199657662741d0     0.450459993398036d0
O1       0.000168956062439d0     0.502092749385683d0     0.420348317642700d0
O1       0.197469127266182d0     0.752474212605403d0     0.501549465746832d0
O1       0.803148381285004d0     0.752444715896250d0     0.501568376290990d0
Ti1      0.001261097616794d0     0.006475055602101d0     0.499908523075820d0
Ti1      0.501343761187001d0     0.752527071771149d0     0.496098775438973d0
O1       0.000124347646065d0     0.507347497487103d0     0.582900190153855d0
O1       0.500291930588025d0     0.502465224718218d0     0.553099809855961d0
O1       0.691089828615272d0     0.749285190155899d0     0.639327158933119d0
O1       0.309839209746167d0     0.749647927201290d0     0.639191398527226d0
Ti1      0.498770885035858d0     0.003314455622276d0     0.625704029220627d0
Ti1      0.998649126370201d0     0.754868569141274d0     0.634115061797707d0
O1       0.500093721748991d0     0.500084921243389d0     0.186906639369252d0
O1       0.198268504441573d0     0.750236248865719d0     0.238667392858710d0
O1       0.801993766892314d0     0.749987153755059d0     0.238669098461250d0
N1       0.010750309622336d0     0.502135139174827d0     0.742039146493980d0
N1       0.003564609897642d0     0.512345609780653d0     0.693277027295282d0
H1       0.013386235709522d0     0.334451942135099d0     0.755032307107665d0
K_POINTS automatic
4 4 1  0 0 0 
