&CONTROL
  calculation='relax',
  prefix='calc',
  pseudo_dir='/storage/coda1/p-amedford6/0/shared/rich_project_chbe-medford/medford-share/data/pseudos_module/espresso/nninc/pbe/van',
  outdir='.',
  tefield=.true.,
  dipfield=.true.,
  tprnfor=.true.,
  disk_io='none',
/
&SYSTEM
  ibrav=0,
  celldm(1)=1.8897261245650618d0,
  nat=55,
  ntyp=4,
  ecutwfc=29.39945797996531d00,
  ecutrho=293.9945797996531d00,
  nbnd=207,
  occupations='smearing',
  smearing='fd',
  degauss=0.007349864494991328d00,
  input_dft='BEEF-vdW',
  edir=3,
  emaxpos=0.020743395611734217d00,
  eopreg=0.025d00,
  eamp=0.0d00,
  nosym=.false.,
  noinv=.false.,
  nosym_evc=.false.,
  no_t_rev=.false.,
/
&ELECTRONS
  diagonalization='david',
  conv_thr=7.349864494991327e-08,
  mixing_beta=0.05d00,
  electron_maxstep=1000,
  startingwfc='atomic',
/
&IONS
  ion_dynamics='ipi',
/
&CELL
  cell_dynamics='ipi',
/
CELL_PARAMETERS alat
    6.579727202290808d0     0.000000000000000d0     0.000000000000000d0
   -0.000775132442404d0     5.961596420607155d0     0.000000000000000d0
    0.000000000000000d0    -0.000000000000000d0    25.155947251439937d0
ATOMIC_SPECIES
Ti1 47.867d00 Ti.UPF
O1 15.999d00 O.UPF
N1 14.007d00 N.UPF
H1 1.008d00 H.UPF
ATOMIC_POSITIONS {crystal}
Ti1      0.000123603383822d0     0.499897385958537d0     0.238512187198856d0
Ti1      0.500142521004230d0     0.250038178055688d0     0.238522014307695d0
O1       0.000095322930372d0     0.000084774873452d0     0.317452257936818d0
O1       0.500112315057126d0     0.000084209992886d0     0.290342007718641d0
O1       0.698270105622955d0     0.250236102495782d0     0.369213011426276d0
O1       0.301995368073694d0     0.249987007385122d0     0.369214717028816d0
Ti1      0.500158505070872d0     0.500155774594832d0     0.364163076180906d0
Ti1      0.000162087224484d0     0.249991612066862d0     0.368023555011392d0
O1       0.500117886535499d0     0.996091458271035d0     0.451971058367084d0
O1       0.000116483636832d0     0.998834181266552d0     0.422045912087585d0
O1       0.196291016246076d0     0.248220317241172d0     0.503048577119868d0
O1       0.803873576528591d0     0.248189884073473d0     0.503047685527996d0
Ti1      0.000175080243927d0     0.497108445220672d0     0.496970181926946d0
Ti1      0.500072391486171d0     0.247200021480262d0     0.497480724667757d0
O1       0.000068179296999d0     0.006109061588152d0     0.584426011875343d0
O1       0.500112773782065d0     0.997610649566419d0     0.556565865614682d0
O1       0.691395669991429d0     0.244526696281557d0     0.644897876418614d0
O1       0.308751000350754d0     0.244516555779132d0     0.644892920082792d0
Ti1      0.500061771069602d0     0.492603571629277d0     0.626311676174558d0
Ti1      0.000098970908626d0     0.240061426179959d0     0.636557944988259d0
O1       0.500093721748991d0     0.000084921243389d0     0.186906639369252d0
O1       0.000067373408196d0     0.971564228679697d0     0.686335097471739d0
O1       0.198268504441573d0     0.250236248865719d0     0.238667392858710d0
O1       0.801993766892314d0     0.249987153755059d0     0.238669098461250d0
Ti1      0.000123603383822d0     0.999897385958537d0     0.238512187198856d0
Ti1      0.500142521004230d0     0.750038178055688d0     0.238522014307695d0
O1       0.000095322930372d0     0.500084774873452d0     0.317452257936818d0
O1       0.500112315057126d0     0.500084209992886d0     0.290342007718641d0
O1       0.698270105622955d0     0.750236102495782d0     0.369213011426276d0
O1       0.301995368073694d0     0.749987007385122d0     0.369214717028816d0
Ti1      0.500156890730762d0     0.000157772383712d0     0.364094566240812d0
Ti1      0.000162483947971d0     0.750224524806221d0     0.368020999893661d0
O1       0.500116967967797d0     0.498144412287863d0     0.451681373493204d0
O1       0.000115657904314d0     0.499860214180161d0     0.422441041159309d0
O1       0.195976133064343d0     0.746540032101946d0     0.504176870855214d0
O1       0.804191266978017d0     0.746509657149979d0     0.504174722427538d0
Ti1      0.000173406120342d0     0.998143246243970d0     0.496842447912680d0
Ti1      0.500071915419319d0     0.746934330789608d0     0.498034198174226d0
O1       0.000061280790058d0     0.487341469646936d0     0.593933292810066d0
O1       0.500109841145284d0     0.493726305798941d0     0.555121813570306d0
O1       0.691445977523431d0     0.739016204234786d0     0.642426378922002d0
O1       0.308705300712462d0     0.739008159798336d0     0.642421093686775d0
Ti1      0.500077842222333d0     0.992979942249689d0     0.628024286638969d0
Ti1      0.000100247665038d0     0.776715880338524d0     0.632279954141947d0
O1       0.500093721748991d0     0.500084921243389d0     0.186906639369252d0
O1       0.198268504441573d0     0.750236248865719d0     0.238667392858710d0
O1       0.801993766892314d0     0.749987153755059d0     0.238669098461250d0
N1       0.999965768850771d0     0.426048338689086d0     0.718067130725228d0
H1       0.999858001854450d0     0.275680168114543d0     0.737634876028795d0
H1       0.124156478439536d0     0.513120702500753d0     0.730752620145630d0
H1       0.875624258623284d0     0.513085161509261d0     0.730673677437272d0
N1       0.000105761308566d0     0.815532052608046d0     0.815272325508009d0
H1       0.999763011337592d0     0.856147988446535d0     0.854580151854216d0
H1       0.123417919654770d0     0.891179972152899d0     0.798557904256908d0
H1       0.876699574186853d0     0.890518592702311d0     0.798448129739635d0
K_POINTS automatic
4 4 1  0 0 0 
