&CONTROL
  calculation='relax',
  prefix='calc',
  pseudo_dir='/storage/coda1/p-amedford6/0/shared/rich_project_chbe-medford/medford-share/data/pseudos_module/espresso/nninc/pbe/van',
  outdir='.',
  tefield=.true.,
  dipfield=.true.,
  tprnfor=.true.,
  disk_io='none',
/
&SYSTEM
  ibrav=0,
  celldm(1)=1.8897261245650618d0,
  nat=54,
  ntyp=5,
  ecutwfc=29.39945797996531d00,
  ecutrho=293.9945797996531d00,
  nbnd=208,
  occupations='smearing',
  smearing='fd',
  degauss=0.007349864494991328d00,
  input_dft='BEEF-vdW',
  edir=3,
  emaxpos=0.9933302084184148d00,
  eopreg=0.025d00,
  eamp=0.0d00,
  nosym=.false.,
  noinv=.false.,
  nosym_evc=.false.,
  no_t_rev=.false.,
/
&ELECTRONS
  diagonalization='david',
  conv_thr=7.349864494991327e-08,
  mixing_beta=0.05d00,
  electron_maxstep=1000,
  startingpot='file',
  startingwfc='atomic',
/
&IONS
  ion_dynamics='ipi',
/
&CELL
  cell_dynamics='ipi',
/
CELL_PARAMETERS alat
    6.579727202290808d0     0.000000000000000d0     0.000000000000000d0
   -0.000775132442404d0     5.961596420607155d0     0.000000000000000d0
    0.000000000000000d0    -0.000000000000000d0    25.155947251439940d0
ATOMIC_SPECIES
Ti1 47.867d00 Ti.UPF
O1 15.999d00 O.UPF
N1 14.007d00 N.UPF
C1 12.011d00 C.UPF
H1 1.008d00 H.UPF
ATOMIC_POSITIONS {crystal}
Ti1      0.000123603383822d0     0.499897385958536d0     0.238512187198856d0
Ti1      0.500142521004230d0     0.250038178055688d0     0.238522014307695d0
O1       0.000095322930372d0     0.000084774873452d0     0.317452257936818d0
O1       0.500112315057126d0     0.000084209992886d0     0.290342007718641d0
O1       0.698270105622955d0     0.250236102495782d0     0.369213011426276d0
O1       0.301995368073695d0     0.249987007385122d0     0.369214717028816d0
Ti1      0.500198167309398d0     0.485761668506182d0     0.364758343030283d0
Ti1      0.000261424674789d0     0.248709163236136d0     0.368424970923767d0
O1       0.499851189013998d0     0.998142596389343d0     0.452121557311216d0
O1       0.001882992193933d0     0.999479849154423d0     0.422099495650131d0
O1       0.195579382070911d0     0.248354054707473d0     0.504158078669219d0
O1       0.804391209634935d0     0.248568023235197d0     0.504024609458556d0
Ti1      0.000382623758408d0     0.497180121262823d0     0.497525535102202d0
Ti1      0.499481400354998d0     0.246747921702479d0     0.498026099072841d0
O1       0.996384264906412d0     0.988838447455962d0     0.584525222067593d0
O1       0.499990667852555d0     0.996176143129378d0     0.556042094565549d0
O1       0.689264029936103d0     0.249613038900933d0     0.642865741929202d0
O1       0.307920878436794d0     0.248089123370623d0     0.641982397002444d0
Ti1      0.497526483355714d0     0.498023245487667d0     0.626579599608213d0
Ti1      0.997184065415397d0     0.222873585281990d0     0.630989632796233d0
O1       0.500093721748991d0     0.000084921243389d0     0.186906639369252d0
O1       0.999820748688390d0     0.010877078222973d0     0.685449012920238d0
O1       0.198268504441574d0     0.250236248865719d0     0.238667392858710d0
O1       0.801993766892314d0     0.249987153755059d0     0.238669098461250d0
Ti1      0.000123603383822d0     0.999897385958536d0     0.238512187198856d0
Ti1      0.500142521004230d0     0.750038178055688d0     0.238522014307695d0
O1       0.000095322930372d0     0.500084774873452d0     0.317452257936818d0
O1       0.500112315057126d0     0.500084209992886d0     0.290342007718641d0
O1       0.698270105622955d0     0.750236102495782d0     0.369213011426276d0
O1       0.301995368073695d0     0.749987007385122d0     0.369214717028816d0
Ti1      0.500001644927041d0     0.985370751416071d0     0.364779031055315d0
Ti1      0.000183276761494d0     0.748948988039575d0     0.368476322807288d0
O1       0.499830960910071d0     0.496767916127033d0     0.451995540991530d0
O1       0.001460782485842d0     0.499964783615161d0     0.422656139091726d0
O1       0.195696516443456d0     0.747006925388773d0     0.503358203859520d0
O1       0.803955903567483d0     0.746678758524380d0     0.502946473493244d0
Ti1      0.999006967523163d0     0.995756686472521d0     0.497030665832414d0
Ti1      0.499349765750136d0     0.746387211485962d0     0.497843948916196d0
O1       0.999430561189335d0     0.501744185484586d0     0.595041778293806d0
O1       0.499760656765937d0     0.499112861771573d0     0.555363034963133d0
O1       0.689630524269067d0     0.745740688479684d0     0.644156724352387d0
O1       0.308896027927299d0     0.747118021315414d0     0.643956121966558d0
Ti1      0.498190322912123d0     0.997049734067654d0     0.627436761180843d0
Ti1      0.994051582882672d0     0.764004094383467d0     0.638877505828444d0
O1       0.500093721748991d0     0.500084921243389d0     0.186906639369252d0
O1       0.198268504441574d0     0.750236248865719d0     0.238667392858710d0
O1       0.801993766892315d0     0.749987153755059d0     0.238669098461250d0
N1       0.016259610422855d0     0.538632959100784d0     0.715861111801049d0
C1       0.078082245021745d0     0.425651567685462d0     0.748928962250692d0
H1       0.154657991210690d0     0.308578298377985d0     0.775244989033554d0
N1       0.369384096407716d0     0.052137201957283d0     0.773254856137648d0
H1       0.494374701842805d0     0.111149763448737d0     0.754018811578131d0
H1       0.282959713936823d0     0.970228509436045d0     0.745788456355267d0
H1       0.419614808258616d0     0.936730388315200d0     0.799753777467577d0
K_POINTS automatic
4 4 1  0 0 0 
