&CONTROL
  calculation='relax',
  prefix='calc',
  pseudo_dir='/storage/coda1/p-amedford6/0/shared/rich_project_chbe-medford/medford-share/data/pseudos_module/espresso/nninc/pbe/van',
  outdir='.',
  tefield=.true.,
  dipfield=.true.,
  tprnfor=.true.,
  disk_io='none',
/
&SYSTEM
  ibrav=0,
  celldm(1)=1.8897261245650618d0,
  nat=54,
  ntyp=5,
  ecutwfc=29.39945797996531d00,
  ecutrho=293.9945797996531d00,
  nbnd=208,
  occupations='smearing',
  smearing='fd',
  degauss=0.007349864494991328d00,
  nspin=2,
  starting_magnetization(1)=0.0d00,
  starting_magnetization(2)=0.0d00,
  starting_magnetization(3)=0.12d00,
  starting_magnetization(4)=0.15d00,
  starting_magnetization(5)=0.0d00,
  input_dft='BEEF-vdW',
  edir=3,
  emaxpos=0.9786214106435148d00,
  eopreg=0.025d00,
  eamp=0.0d00,
  nosym=.false.,
  noinv=.false.,
  nosym_evc=.false.,
  no_t_rev=.false.,
/
&ELECTRONS
  diagonalization='david',
  conv_thr=7.349864494991327e-08,
  mixing_beta=0.05d00,
  electron_maxstep=1000,
  startingwfc='atomic',
/
&IONS
  ion_dynamics='ipi',
/
&CELL
  cell_dynamics='ipi',
/
CELL_PARAMETERS alat
    6.579727202290808d0     0.000000000000000d0     0.000000000000000d0
   -0.000775132442404d0     5.961596420607155d0     0.000000000000000d0
    0.000000000000000d0    -0.000000000000000d0    25.155947251439940d0
ATOMIC_SPECIES
Ti1 47.867d00 Ti.UPF
O1 15.999d00 O.UPF
N1 14.007d00 N.UPF
C1 12.011d00 C.UPF
H1 1.008d00 H.UPF
ATOMIC_POSITIONS {crystal}
Ti1      0.000123603383822d0     0.499897385958536d0     0.238512187198856d0
Ti1      0.500142521004230d0     0.250038178055688d0     0.238522014307695d0
O1       0.000095322930372d0     0.000084774873452d0     0.317452257936818d0
O1       0.500112315057126d0     0.000084209992886d0     0.290342007718641d0
O1       0.698270105622955d0     0.250236102495782d0     0.369213011426276d0
O1       0.301995368073695d0     0.249987007385122d0     0.369214717028816d0
Ti1      0.500198167309398d0     0.485761668506182d0     0.364758343030283d0
Ti1      0.000261424674789d0     0.248709163236136d0     0.368424970923767d0
O1       0.503879232324399d0     0.001683741297865d0     0.449236111866072d0
O1       0.001882992193933d0     0.999479849154423d0     0.422099495650131d0
O1       0.201672305843917d0     0.252346353474837d0     0.500276876671091d0
O1       0.809262873969040d0     0.250102726972457d0     0.502656786551364d0
Ti1      0.993694435618090d0     0.506471991366532d0     0.505862234321070d0
Ti1      0.485552212167603d0     0.253053657405249d0     0.495184015438500d0
O1       0.021147152462658d0     0.999671422041194d0     0.582106908648278d0
O1       0.495510225535970d0     0.004651828107497d0     0.550437097117386d0
O1       0.704204664443069d0     0.252022783474658d0     0.635443829111416d0
O1       0.325496076514020d0     0.257910208301922d0     0.636611933806486d0
Ti1      0.524673388894679d0     0.507348255618925d0     0.622646079218118d0
Ti1      0.020206155076386d0     0.232143069409870d0     0.628971336782245d0
O1       0.500093721748991d0     0.000084921243389d0     0.186906639369252d0
O1       0.018700321352428d0     0.006288635643266d0     0.683678547881036d0
O1       0.198268504441574d0     0.250236248865719d0     0.238667392858710d0
O1       0.801993766892314d0     0.249987153755059d0     0.238669098461250d0
Ti1      0.000123603383822d0     0.999897385958536d0     0.238512187198856d0
Ti1      0.500142521004230d0     0.750038178055688d0     0.238522014307695d0
O1       0.000095322930372d0     0.500084774873452d0     0.317452257936818d0
O1       0.500112315057126d0     0.500084209992886d0     0.290342007718641d0
O1       0.698270105622955d0     0.750236102495782d0     0.369213011426276d0
O1       0.301995368073695d0     0.749987007385122d0     0.369214717028816d0
Ti1      0.500001644927041d0     0.985370751416071d0     0.364779031055315d0
Ti1      0.000183276761494d0     0.748948988039575d0     0.368476322807288d0
O1       0.504226921497626d0     0.502926897314234d0     0.449334526381803d0
O1       0.001460782485842d0     0.499964783615161d0     0.422656139091726d0
O1       0.201481678487334d0     0.749562668425417d0     0.500614348851287d0
O1       0.809162244579879d0     0.753897547602022d0     0.502833110685990d0
Ti1      0.991229228533755d0     0.005088431970177d0     0.498758736532930d0
Ti1      0.486270892122517d0     0.752835355229176d0     0.495172923577820d0
O1       0.010870947857981d0     0.497765323488786d0     0.583639971415620d0
O1       0.503422529301672d0     0.501724221813966d0     0.551012344028034d0
O1       0.703123758100652d0     0.765951932963349d0     0.626815199093106d0
O1       0.332249133234626d0     0.749645338101849d0     0.641052293330368d0
Ti1      0.504177500145807d0     0.003773435431683d0     0.622160047007038d0
Ti1      0.002618240106841d0     0.757151301732781d0     0.644435505946956d0
O1       0.500093721748991d0     0.500084921243389d0     0.186906639369252d0
O1       0.198268504441574d0     0.750236248865719d0     0.238667392858710d0
O1       0.801993766892315d0     0.749987153755059d0     0.238669098461250d0
N1       0.040942998195046d0     0.484261151351415d0     0.699944641490147d0
C1       0.185553913000016d0     0.457348124996603d0     0.743518522999922d0
H1       0.200935436459424d0     0.615223276899236d0     0.765409528768266d0
H1       0.129935017528205d0     0.326538935641545d0     0.770336181917777d0
H1       0.333056729911981d0     0.406192997064237d0     0.728550929699688d0
N1       0.864720573337876d0     0.586264271805008d0     0.711523861811235d0
H1       0.870329498915683d0     0.663522126705439d0     0.748089994347778d0
K_POINTS automatic
4 4 1  0 0 0 
