&CONTROL
  calculation='relax',
  prefix='calc',
  pseudo_dir='/storage/coda1/p-amedford6/0/shared/rich_project_chbe-medford/medford-share/data/pseudos_module/espresso/nninc/pbe/van',
  outdir='.',
  tefield=.true.,
  dipfield=.true.,
  tprnfor=.true.,
  disk_io='none',
/
&SYSTEM
  ibrav=0,
  celldm(1)=1.8897261245650618d0,
  nat=57,
  ntyp=5,
  ecutwfc=29.39945797996531d00,
  ecutrho=293.9945797996531d00,
  nbnd=210,
  occupations='smearing',
  smearing='fd',
  degauss=0.007349864494991328d00,
  input_dft='BEEF-vdW',
  edir=3,
  emaxpos=0.993251396647579d00,
  eopreg=0.025d00,
  eamp=0.0d00,
  nosym=.false.,
  noinv=.false.,
  nosym_evc=.false.,
  no_t_rev=.false.,
/
&ELECTRONS
  diagonalization='david',
  conv_thr=7.349864494991327e-08,
  mixing_beta=0.05d00,
  electron_maxstep=1000,
  startingpot='file',
  startingwfc='atomic',
/
&IONS
  ion_dynamics='ipi',
/
&CELL
  cell_dynamics='ipi',
/
CELL_PARAMETERS alat
    6.579727202290808d0     0.000000000000000d0     0.000000000000000d0
   -0.000775132442404d0     5.961596420607155d0     0.000000000000000d0
    0.000000000000000d0    -0.000000000000000d0    25.155947251439940d0
ATOMIC_SPECIES
Ti1 47.867d00 Ti.UPF
O1 15.999d00 O.UPF
N1 14.007d00 N.UPF
C1 12.011d00 C.UPF
H1 1.008d00 H.UPF
ATOMIC_POSITIONS {crystal}
Ti1      0.000123603383822d0     0.499897385958536d0     0.238512187198856d0
Ti1      0.500142521004230d0     0.250038178055688d0     0.238522014307695d0
O1       0.000095322930372d0     0.000084774873452d0     0.317452257936818d0
O1       0.500112315057126d0     0.000084209992886d0     0.290342007718641d0
O1       0.698270105622955d0     0.250236102495782d0     0.369213011426276d0
O1       0.301995368073695d0     0.249987007385122d0     0.369214717028816d0
Ti1      0.500198167309398d0     0.485761668506182d0     0.364758343030283d0
Ti1      0.000261424674789d0     0.248709163236136d0     0.368424970923767d0
O1       0.500204331551846d0     0.004933539846461d0     0.452421037930546d0
O1       0.001882992193933d0     0.999479849154423d0     0.422099495650131d0
O1       0.196183401810054d0     0.254145633588219d0     0.504637654149971d0
O1       0.805190572059206d0     0.253590671515894d0     0.504442299051491d0
Ti1      0.002414009700942d0     0.504155617006306d0     0.497355055268552d0
Ti1      0.503401130206217d0     0.252900820558325d0     0.498540156015838d0
O1       0.001444888737563d0     0.990608779015705d0     0.584100722148102d0
O1       0.501555079524067d0     0.001516953718603d0     0.557395458948161d0
O1       0.693167803534749d0     0.267016741146268d0     0.639517588877029d0
O1       0.305062485775991d0     0.265998688256978d0     0.639190929418086d0
Ti1      0.499093981661018d0     0.510133855596409d0     0.625585567335830d0
Ti1      0.002553695066055d0     0.227057645504615d0     0.629696980743803d0
O1       0.500093721748991d0     0.000084921243389d0     0.186906639369252d0
O1       0.997441830426385d0     0.032158616602304d0     0.685613211062724d0
O1       0.198268504441574d0     0.250236248865719d0     0.238667392858710d0
O1       0.801993766892314d0     0.249987153755059d0     0.238669098461250d0
Ti1      0.000123603383822d0     0.999897385958536d0     0.238512187198856d0
Ti1      0.500142521004230d0     0.750038178055688d0     0.238522014307695d0
O1       0.000095322930372d0     0.500084774873452d0     0.317452257936818d0
O1       0.500112315057126d0     0.500084209992886d0     0.290342007718641d0
O1       0.698270105622955d0     0.750236102495782d0     0.369213011426276d0
O1       0.301995368073695d0     0.749987007385122d0     0.369214717028816d0
Ti1      0.500001644927041d0     0.985370751416071d0     0.364779031055315d0
Ti1      0.000183276761494d0     0.748948988039575d0     0.368476322807288d0
O1       0.501233591006850d0     0.501338994692574d0     0.452173436622876d0
O1       0.001460782485842d0     0.499964783615161d0     0.422656139091726d0
O1       0.196568960532562d0     0.752301513831956d0     0.502878759017727d0
O1       0.804980372929976d0     0.752817684660947d0     0.502704560603806d0
Ti1      0.002873667009457d0     0.002255053535333d0     0.496881878699342d0
Ti1      0.503626308093013d0     0.753587998212948d0     0.497924503114281d0
O1       0.997946406003833d0     0.516575901142864d0     0.593887583752725d0
O1       0.500274768870034d0     0.509122594196301d0     0.554665879033606d0
O1       0.689675904965940d0     0.755819843927340d0     0.645936728250607d0
O1       0.304973296132247d0     0.754706734864557d0     0.645835839545396d0
Ti1      0.503161141274536d0     0.013101127242010d0     0.629630972423022d0
Ti1      0.004032886065824d0     0.764331265242746d0     0.637758865997604d0
O1       0.500093721748991d0     0.500084921243389d0     0.186906639369252d0
O1       0.198268504441574d0     0.750236248865719d0     0.238667392858710d0
O1       0.801993766892315d0     0.749987153755059d0     0.238669098461250d0
N1       0.965366254843867d0     0.554977487976676d0     0.721676913864553d0
C1       0.132225286126176d0     0.528399622532933d0     0.760463545549706d0
H1       0.209598470981070d0     0.688611992561235d0     0.764895670537425d0
H1       0.077364211828164d0     0.476207680929264d0     0.799596153925906d0
H1       0.239861050998804d0     0.404581388626781d0     0.745910732047933d0
H1       0.869584663991554d0     0.677383684501513d0     0.734335688142710d0
H1       0.878982980744542d0     0.411923385420437d0     0.720741720654097d0
O1       0.498768114485277d0     0.052823585679309d0     0.728815415360266d0
H1       0.613829864335298d0     0.953842937853018d0     0.734323504834138d0
H1       0.377276207942663d0     0.962347144971885d0     0.733165079778288d0
K_POINTS automatic
4 4 1  0 0 0 
