&CONTROL
  calculation='relax',
  prefix='calc',
  pseudo_dir='/storage/coda1/p-amedford6/0/shared/rich_project_chbe-medford/medford-share/data/pseudos_module/espresso/nninc/pbe/van',
  outdir='.',
  tefield=.true.,
  dipfield=.true.,
  tprnfor=.true.,
  disk_io='none',
/
&SYSTEM
  ibrav=0,
  celldm(1)=1.8897261245650618d0,
  nat=56,
  ntyp=5,
  ecutwfc=29.39945797996531d00,
  ecutrho=293.9945797996531d00,
  nbnd=211,
  occupations='smearing',
  smearing='fd',
  degauss=0.007349864494991328d00,
  input_dft='BEEF-vdW',
  edir=3,
  emaxpos=0.0012195750776324843d00,
  eopreg=0.025d00,
  eamp=0.0d00,
  nosym=.false.,
  noinv=.false.,
  nosym_evc=.false.,
  no_t_rev=.false.,
/
&ELECTRONS
  diagonalization='david',
  conv_thr=7.349864494991327e-08,
  mixing_beta=0.05d00,
  electron_maxstep=1000,
  startingwfc='atomic',
/
&IONS
  ion_dynamics='ipi',
/
&CELL
  cell_dynamics='ipi',
/
CELL_PARAMETERS alat
    6.579727202290808d0     0.000000000000000d0     0.000000000000000d0
   -0.000775132442404d0     5.961596420607155d0     0.000000000000000d0
    0.000000000000000d0    -0.000000000000000d0    25.155947251439940d0
ATOMIC_SPECIES
Ti1 47.867d00 Ti.UPF
O1 15.999d00 O.UPF
N1 14.007d00 N.UPF
C1 12.011d00 C.UPF
H1 1.008d00 H.UPF
ATOMIC_POSITIONS {crystal}
Ti1      0.000123603383822d0     0.499897385958536d0     0.238512187198856d0
Ti1      0.500142521004230d0     0.250038178055688d0     0.238522014307695d0
O1       0.000095322930372d0     0.000084774873452d0     0.317452257936818d0
O1       0.500112315057126d0     0.000084209992886d0     0.290342007718641d0
O1       0.698270105622955d0     0.250236102495782d0     0.369213011426276d0
O1       0.301995368073695d0     0.249987007385122d0     0.369214717028816d0
Ti1      0.500198167309398d0     0.485761668506182d0     0.364758343030283d0
Ti1      0.000261424674789d0     0.248709163236136d0     0.368424970923767d0
O1       0.501315246851292d0     0.996183433489042d0     0.450377688571224d0
O1       0.001882992193933d0     0.999479849154423d0     0.422099495650131d0
O1       0.203099835924386d0     0.243145030727717d0     0.501620081936290d0
O1       0.808789456434769d0     0.241443128834540d0     0.501715337089662d0
Ti1      0.992690113565533d0     0.492660832561365d0     0.500980011772544d0
Ti1      0.489758331350135d0     0.243488118899178d0     0.496511779558864d0
O1       0.005259119807633d0     0.980931350723701d0     0.581428505423054d0
O1       0.503257578978827d0     0.990336225017661d0     0.554212812621470d0
O1       0.693691911123369d0     0.242934478694071d0     0.635838124355032d0
O1       0.310167807473390d0     0.247549907224424d0     0.635759061271912d0
Ti1      0.503627905242339d0     0.494223445186642d0     0.623637978017280d0
Ti1      0.004084983463854d0     0.240042377853530d0     0.625035935775367d0
O1       0.500093721748991d0     0.000084921243389d0     0.186906639369252d0
O1       0.006277380521896d0     0.992013965560874d0     0.683413702975977d0
O1       0.198268504441574d0     0.250236248865719d0     0.238667392858710d0
O1       0.801993766892314d0     0.249987153755059d0     0.238669098461250d0
Ti1      0.000123603383822d0     0.999897385958536d0     0.238512187198856d0
Ti1      0.500142521004230d0     0.750038178055688d0     0.238522014307695d0
O1       0.000095322930372d0     0.500084774873452d0     0.317452257936818d0
O1       0.500112315057126d0     0.500084209992886d0     0.290342007718641d0
O1       0.698270105622955d0     0.750236102495782d0     0.369213011426276d0
O1       0.301995368073695d0     0.749987007385122d0     0.369214717028816d0
Ti1      0.500001644927041d0     0.985370751416071d0     0.364779031055315d0
Ti1      0.000183276761494d0     0.748948988039575d0     0.368476322807288d0
O1       0.501366315534020d0     0.493829881501100d0     0.450601367814838d0
O1       0.001460782485842d0     0.499964783615161d0     0.422656139091726d0
O1       0.199793894590713d0     0.744736313847359d0     0.501220978226361d0
O1       0.808945980094325d0     0.743326495159082d0     0.500980116774268d0
Ti1      0.994252538651387d0     0.991629692019908d0     0.498442881286093d0
Ti1      0.489211701916139d0     0.746604167953253d0     0.497125203758921d0
O1       0.999921206697047d0     0.488739204363127d0     0.580918140172154d0
O1       0.504249854801704d0     0.495801291537030d0     0.552321903500996d0
O1       0.694461323110465d0     0.734538643263420d0     0.639646427862681d0
O1       0.312780106562314d0     0.733247372802283d0     0.638867057821789d0
Ti1      0.504364622345558d0     0.994304796289723d0     0.628137433315792d0
Ti1      0.006352122672440d0     0.763725599660307d0     0.640371941056718d0
O1       0.500093721748991d0     0.500084921243389d0     0.186906639369252d0
O1       0.198268504441574d0     0.750236248865719d0     0.238667392858710d0
O1       0.801993766892315d0     0.749987153755059d0     0.238669098461250d0
N1       0.981913307658323d0     0.406905319706033d0     0.736034957099312d0
N1       0.002399950964899d0     0.463447608722910d0     0.689917347183389d0
C1       0.031445592374588d0     0.577471036121516d0     0.777775085349612d0
H1       0.931715518234203d0     0.725331978774957d0     0.776300633549969d0
H1       0.016325322795210d0     0.488353168138913d0     0.815532510786013d0
H1       0.188494013142523d0     0.628637943189648d0     0.771557282244264d0
O1       0.491252136586886d0     0.993076887194886d0     0.723078463214382d0
H1       0.602258478015823d0     0.082847246694709d0     0.737540797501018d0
H1       0.361460523138285d0     0.055195833916165d0     0.735969915092243d0
K_POINTS automatic
4 4 1  0 0 0 
