&CONTROL
  calculation='relax',
  prefix='calc',
  pseudo_dir='/storage/coda1/p-amedford6/0/shared/rich_project_chbe-medford/medford-share/data/pseudos_module/espresso/nninc/pbe/van',
  outdir='.',
  tefield=.true.,
  dipfield=.true.,
  tprnfor=.true.,
  disk_io='none',
/
&SYSTEM
  ibrav=0,
  celldm(1)=1.8897261245650618d0,
  nat=55,
  ntyp=5,
  ecutwfc=29.39945797996531d00,
  ecutrho=293.9945797996531d00,
  nbnd=211,
  occupations='smearing',
  smearing='fd',
  degauss=0.007349864494991328d00,
  input_dft='BEEF-vdW',
  edir=3,
  emaxpos=0.9857026837219739d00,
  eopreg=0.025d00,
  eamp=0.0d00,
  nosym=.false.,
  noinv=.false.,
  nosym_evc=.false.,
  no_t_rev=.false.,
/
&ELECTRONS
  diagonalization='david',
  conv_thr=7.349864494991327e-08,
  mixing_beta=0.05d00,
  electron_maxstep=1000,
  startingwfc='atomic',
/
&IONS
  ion_dynamics='ipi',
/
&CELL
  cell_dynamics='ipi',
/
CELL_PARAMETERS alat
    6.579727202290808d0     0.000000000000000d0     0.000000000000000d0
   -0.000775132442404d0     5.961596420607155d0     0.000000000000000d0
    0.000000000000000d0    -0.000000000000000d0    25.155947251439940d0
ATOMIC_SPECIES
Ti1 47.867d00 Ti.UPF
O1 15.999d00 O.UPF
C1 12.011d00 C.UPF
H1 1.008d00 H.UPF
N1 14.007d00 N.UPF
ATOMIC_POSITIONS {crystal}
Ti1      0.000123603383822d0     0.499897385958537d0     0.238512187198856d0
Ti1      0.500142521004230d0     0.250038178055688d0     0.238522014307695d0
O1       0.000095322930372d0     0.000084774873452d0     0.317452257936818d0
O1       0.500112315057126d0     0.000084209992886d0     0.290342007718641d0
O1       0.698270105622955d0     0.250236102495782d0     0.369213011426276d0
O1       0.301995368073695d0     0.249987007385122d0     0.369214717028816d0
Ti1      0.496374953665312d0     0.504457837549149d0     0.363990208982113d0
Ti1      0.995807486147724d0     0.250916101351272d0     0.368410724471506d0
O1       0.503335953148401d0     0.001681682561745d0     0.452192773280097d0
O1       0.000972130092153d0     0.000652005914497d0     0.421973722791711d0
O1       0.199181233953716d0     0.251848506299940d0     0.503225963910468d0
O1       0.807082221466481d0     0.252298008943919d0     0.503577494506546d0
Ti1      0.005486795892453d0     0.502891342904241d0     0.498397937849962d0
Ti1      0.506463915212352d0     0.252407042719713d0     0.497440399548845d0
O1       0.004443115820868d0     0.003587939521337d0     0.584659597862751d0
O1       0.503099199221005d0     0.001589856030088d0     0.556707880649863d0
O1       0.696582666738829d0     0.255910588889761d0     0.643486795037272d0
O1       0.314556073165895d0     0.256486078912949d0     0.643630519884370d0
Ti1      0.506028361932270d0     0.502693254793401d0     0.625734167433372d0
Ti1      0.003218885543293d0     0.236328616986698d0     0.633916918979133d0
O1       0.500093721748991d0     0.000084921243389d0     0.186906639369252d0
O1       0.004799198170415d0     0.003841396584392d0     0.685272559959195d0
O1       0.198268504441574d0     0.250236248865719d0     0.238667392858710d0
O1       0.801993766892314d0     0.249987153755059d0     0.238669098461250d0
Ti1      0.000123603383822d0     0.999897385958537d0     0.238512187198856d0
Ti1      0.500142521004230d0     0.750038178055688d0     0.238522014307695d0
O1       0.000095322930372d0     0.500084774873452d0     0.317452257936818d0
O1       0.500112315057126d0     0.500084209992886d0     0.290342007718641d0
O1       0.698270105622955d0     0.750236102495782d0     0.369213011426276d0
O1       0.301995368073695d0     0.749987007385122d0     0.369214717028816d0
Ti1      0.497378969457899d0     0.004651016243615d0     0.363897754642349d0
Ti1      0.995675203532373d0     0.749512805811149d0     0.368516173739609d0
O1       0.502713305929552d0     0.501766827422730d0     0.451882797397091d0
O1       0.001237598063843d0     0.500840049233475d0     0.422752251827132d0
O1       0.199076493016901d0     0.751779173635691d0     0.503299585273987d0
O1       0.807271971512939d0     0.751445861934612d0     0.503638003457974d0
Ti1      0.005218692424578d0     0.002640546935148d0     0.496624496818637d0
Ti1      0.506301980826359d0     0.751998593520469d0     0.497641348781525d0
O1       0.006126821062700d0     0.502999931279252d0     0.592584660291518d0
O1       0.503586314396149d0     0.501898015261115d0     0.554818056880772d0
O1       0.697264358491424d0     0.749584924631792d0     0.643412998709485d0
O1       0.315268931401234d0     0.748343128915567d0     0.644707698759296d0
Ti1      0.503358731399718d0     0.002871430716340d0     0.627984189866758d0
Ti1      0.001079742304154d0     0.775010744232068d0     0.635374520552349d0
O1       0.500093721748991d0     0.500084921243389d0     0.186906639369252d0
O1       0.198268504441574d0     0.750236248865719d0     0.238667392858710d0
O1       0.801993766892315d0     0.749987153755059d0     0.238669098461250d0
C1       0.907719524170363d0     0.496105503844762d0     0.753705280922209d0
O1       0.026489936274481d0     0.504869537187341d0     0.705224174316437d0
H1       0.750132581272383d0     0.483407713010430d0     0.741580956248433d0
H1       0.170488982968130d0     0.512031529848243d0     0.713691970006087d0
H1       0.950777955051810d0     0.347701319107696d0     0.776320927635262d0
H1       0.931676242259854d0     0.649336230160744d0     0.776412322759628d0
N1       0.450541972974260d0     0.987557445868551d0     0.784498728074695d0
N1       0.420685560811904d0     0.164174354023745d0     0.773854571259906d0
K_POINTS automatic
4 4 1  0 0 0 
