&CONTROL
  calculation='relax',
  prefix='calc',
  pseudo_dir='/storage/coda1/p-amedford6/0/shared/rich_project_chbe-medford/medford-share/data/pseudos_module/espresso/nninc/pbe/van',
  outdir='.',
  tefield=.true.,
  dipfield=.true.,
  tprnfor=.true.,
  disk_io='none',
/
&SYSTEM
  ibrav=0,
  celldm(1)=1.8897261245650618d0,
  nat=55,
  ntyp=5,
  ecutwfc=29.39945797996531d00,
  ecutrho=293.9945797996531d00,
  nbnd=211,
  occupations='smearing',
  smearing='fd',
  degauss=0.007349864494991328d00,
  input_dft='BEEF-vdW',
  edir=3,
  emaxpos=0.9870581448607751d00,
  eopreg=0.025d00,
  eamp=0.0d00,
  nosym=.false.,
  noinv=.false.,
  nosym_evc=.false.,
  no_t_rev=.false.,
/
&ELECTRONS
  diagonalization='david',
  conv_thr=7.349864494991327e-08,
  mixing_beta=0.05d00,
  electron_maxstep=1000,
  startingwfc='atomic',
/
&IONS
  ion_dynamics='ipi',
/
&CELL
  cell_dynamics='ipi',
/
CELL_PARAMETERS alat
    6.579727202290808d0     0.000000000000000d0     0.000000000000000d0
   -0.000775132442404d0     5.961596420607155d0     0.000000000000000d0
    0.000000000000000d0    -0.000000000000000d0    25.155947251439940d0
ATOMIC_SPECIES
Ti1 47.867d00 Ti.UPF
O1 15.999d00 O.UPF
C1 12.011d00 C.UPF
H1 1.008d00 H.UPF
N1 14.007d00 N.UPF
ATOMIC_POSITIONS {crystal}
Ti1      0.000123603383822d0     0.499897385958537d0     0.238512187198856d0
Ti1      0.500142521004230d0     0.250038178055688d0     0.238522014307695d0
O1       0.000095322930372d0     0.000084774873452d0     0.317452257936818d0
O1       0.500112315057126d0     0.000084209992886d0     0.290342007718641d0
O1       0.698270105622955d0     0.250236102495782d0     0.369213011426276d0
O1       0.301995368073695d0     0.249987007385122d0     0.369214717028816d0
Ti1      0.494295393769706d0     0.496418737499570d0     0.364133008996594d0
Ti1      0.992883431773773d0     0.250856189220897d0     0.368024381660871d0
O1       0.503105993396568d0     0.001489196050676d0     0.451239874614102d0
O1       0.003003954578480d0     0.001210834683430d0     0.420855454599059d0
O1       0.200432006167148d0     0.254676029885444d0     0.501949513758568d0
O1       0.809537030956846d0     0.254187593810401d0     0.501831003047327d0
Ti1      0.005848064350222d0     0.501957138732578d0     0.496630374174043d0
Ti1      0.507271336270683d0     0.251761554193651d0     0.496906986574490d0
O1       0.003641314999614d0     0.010677570934944d0     0.580674549497908d0
O1       0.507844293466831d0     0.006312510455614d0     0.555033795039734d0
O1       0.691291800230057d0     0.260639804024010d0     0.642024485501317d0
O1       0.306570931107494d0     0.261878420665530d0     0.640435937005765d0
Ti1      0.502126274974380d0     0.506150598952743d0     0.625221109764775d0
Ti1      0.005009392073240d0     0.236708525430690d0     0.631553145465338d0
O1       0.500093721748991d0     0.000084921243389d0     0.186906639369252d0
O1       0.999114743596878d0     0.004681950583227d0     0.681168067925906d0
O1       0.198268504441574d0     0.250236248865719d0     0.238667392858710d0
O1       0.801993766892314d0     0.249987153755059d0     0.238669098461250d0
Ti1      0.000123603383822d0     0.999897385958537d0     0.238512187198856d0
Ti1      0.500142521004230d0     0.750038178055688d0     0.238522014307695d0
O1       0.000095322930372d0     0.500084774873452d0     0.317452257936818d0
O1       0.500112315057126d0     0.500084209992886d0     0.290342007718641d0
O1       0.698270105622955d0     0.750236102495782d0     0.369213011426276d0
O1       0.301995368073695d0     0.749987007385122d0     0.369214717028816d0
Ti1      0.495183551020300d0     0.996332486781388d0     0.364024099252705d0
Ti1      0.992757969317876d0     0.749024498297131d0     0.368077010556315d0
O1       0.504579953347292d0     0.502979245030520d0     0.451033122777026d0
O1       0.002528198475664d0     0.501166501345688d0     0.421735370220149d0
O1       0.200385720744937d0     0.752886380018093d0     0.502763846376281d0
O1       0.809486707019992d0     0.753180106227429d0     0.501896870339738d0
Ti1      0.006676087379730d0     0.002688223193676d0     0.494847498825401d0
Ti1      0.507340747303210d0     0.750814001116778d0     0.496396641159795d0
O1       0.996670521733086d0     0.504769897717808d0     0.592018379440876d0
O1       0.505162076385847d0     0.504364267073025d0     0.553719885448064d0
O1       0.691765404465607d0     0.757789744053499d0     0.641088481108823d0
O1       0.307354480867457d0     0.755013857276535d0     0.639587648726678d0
Ti1      0.504958930798508d0     0.009919139243876d0     0.626529209281170d0
Ti1      0.007015223081938d0     0.781468723596675d0     0.629969502140430d0
O1       0.500093721748991d0     0.500084921243389d0     0.186906639369252d0
O1       0.198268504441574d0     0.750236248865719d0     0.238667392858710d0
O1       0.801993766892315d0     0.749987153755059d0     0.238669098461250d0
C1       0.913558771993368d0     0.452579227745178d0     0.764048498842492d0
O1       0.733444462307269d0     0.323955559977377d0     0.771142565565613d0
H1       0.886800748669651d0     0.617725115479723d0     0.781188916361578d0
H1       0.757936731547641d0     0.176458865300137d0     0.756671067153314d0
H1       0.046351419406463d0     0.375548928513185d0     0.782799544007414d0
H1       0.948806840125432d0     0.477642677646109d0     0.721768127707679d0
N1       0.429370406086817d0     0.792539049386853d0     0.787209650352298d0
N1       0.339696888126956d0     0.682834222401764d0     0.760860539425028d0
K_POINTS automatic
4 4 1  0 0 0 
