&CONTROL
  calculation='relax',
  prefix='calc',
  pseudo_dir='/storage/coda1/p-amedford6/0/shared/rich_project_chbe-medford/medford-share/data/pseudos_module/espresso/nninc/pbe/van',
  outdir='.',
  tefield=.true.,
  dipfield=.true.,
  tprnfor=.true.,
  disk_io='none',
/
&SYSTEM
  ibrav=0,
  celldm(1)=1.8897261245650618d0,
  nat=55,
  ntyp=5,
  ecutwfc=29.39945797996531d00,
  ecutrho=293.9945797996531d00,
  nbnd=211,
  occupations='smearing',
  smearing='fd',
  degauss=0.007349864494991328d00,
  input_dft='BEEF-vdW',
  edir=3,
  emaxpos=0.9930612417071853d00,
  eopreg=0.025d00,
  eamp=0.0d00,
  nosym=.false.,
  noinv=.false.,
  nosym_evc=.false.,
  no_t_rev=.false.,
/
&ELECTRONS
  diagonalization='david',
  conv_thr=7.349864494991327e-08,
  mixing_beta=0.05d00,
  electron_maxstep=1000,
  startingwfc='atomic',
/
&IONS
  ion_dynamics='ipi',
/
&CELL
  cell_dynamics='ipi',
/
CELL_PARAMETERS alat
    6.579727202290808d0     0.000000000000000d0     0.000000000000000d0
   -0.000775132442404d0     5.961596420607155d0     0.000000000000000d0
    0.000000000000000d0    -0.000000000000000d0    25.155947251439940d0
ATOMIC_SPECIES
Ti1 47.867d00 Ti.UPF
O1 15.999d00 O.UPF
C1 12.011d00 C.UPF
H1 1.008d00 H.UPF
N1 14.007d00 N.UPF
ATOMIC_POSITIONS {crystal}
Ti1      0.000123603383822d0     0.499897385958537d0     0.238512187198856d0
Ti1      0.500142521004230d0     0.250038178055688d0     0.238522014307695d0
O1       0.000095322930372d0     0.000084774873452d0     0.317452257936818d0
O1       0.500112315057126d0     0.000084209992886d0     0.290342007718641d0
O1       0.698270105622955d0     0.250236102495782d0     0.369213011426276d0
O1       0.301995368073695d0     0.249987007385122d0     0.369214717028816d0
Ti1      0.503815809939576d0     0.503723907467538d0     0.363982275676053d0
Ti1      0.005058122165916d0     0.249170471421575d0     0.368037130184332d0
O1       0.496512335104395d0     0.004212612055138d0     0.452671904103864d0
O1       0.999457128609054d0     0.001367650276672d0     0.422288437966848d0
O1       0.191738952764265d0     0.252708099165628d0     0.505562829930727d0
O1       0.801898125171713d0     0.252478936852043d0     0.505034319551701d0
Ti1      0.995576487423540d0     0.501455196335519d0     0.496269179870366d0
Ti1      0.494296453373196d0     0.252548614515265d0     0.498547147695561d0
O1       0.994564722408890d0     0.983623020511685d0     0.585110516354862d0
O1       0.497106556713978d0     0.999247123265668d0     0.556499218053420d0
O1       0.685948060821903d0     0.258732488740799d0     0.641132531128064d0
O1       0.304256271742017d0     0.258120133892984d0     0.640356371450709d0
Ti1      0.495416782249525d0     0.507427679351476d0     0.627202464211328d0
Ti1      0.996429190175513d0     0.226232469493607d0     0.628507292211129d0
O1       0.500093721748991d0     0.000084921243389d0     0.186906639369252d0
O1       0.994821755838945d0     0.039267031626690d0     0.686050038550891d0
O1       0.198268504441574d0     0.250236248865719d0     0.238667392858710d0
O1       0.801993766892314d0     0.249987153755059d0     0.238669098461250d0
Ti1      0.000123603383822d0     0.999897385958537d0     0.238512187198856d0
Ti1      0.500142521004230d0     0.750038178055688d0     0.238522014307695d0
O1       0.000095322930372d0     0.500084774873452d0     0.317452257936818d0
O1       0.500112315057126d0     0.500084209992886d0     0.290342007718641d0
O1       0.698270105622955d0     0.750236102495782d0     0.369213011426276d0
O1       0.301995368073695d0     0.749987007385122d0     0.369214717028816d0
Ti1      0.504214085659177d0     0.004030020694679d0     0.363967036805572d0
Ti1      0.005072632465201d0     0.750899098616042d0     0.368058448538207d0
O1       0.496643583741343d0     0.499989070100904d0     0.452498907696373d0
O1       0.999478845306893d0     0.499142589332842d0     0.422483264630172d0
O1       0.192245814031007d0     0.749982793011229d0     0.503068255850629d0
O1       0.801219114647695d0     0.749999573138210d0     0.502550013598531d0
Ti1      0.995141910138042d0     0.998974766758985d0     0.497003902099366d0
Ti1      0.494287381576292d0     0.752142097017227d0     0.497982077210820d0
O1       0.994192590361976d0     0.516382481133965d0     0.598081869974580d0
O1       0.497227666003356d0     0.507946052380867d0     0.555965233984694d0
O1       0.685316988724310d0     0.757192274105149d0     0.646210905467944d0
O1       0.303887442615611d0     0.757451670101465d0     0.645648925626720d0
Ti1      0.495712301371148d0     0.006323289248575d0     0.628003940159506d0
Ti1      0.995126493683627d0     0.769250764020589d0     0.641778354607376d0
O1       0.500093721748991d0     0.500084921243389d0     0.186906639369252d0
O1       0.198268504441574d0     0.750236248865719d0     0.238667392858710d0
O1       0.801993766892315d0     0.749987153755059d0     0.238669098461250d0
C1       0.978920582067927d0     0.653580221677381d0     0.773175219911749d0
O1       0.994975535043519d0     0.553171356746623d0     0.721019805931042d0
H1       0.001239285595181d0     0.832427124683722d0     0.767919725959192d0
H1       0.969117175196373d0     0.392826210973387d0     0.724255735447562d0
H1       0.828542102825417d0     0.621876390717734d0     0.789922128128759d0
H1       0.096383367075781d0     0.585498142371747d0     0.799215844045118d0
N1       0.400657786406641d0     0.146584070211103d0     0.789981202624318d0
N1       0.489971429152069d0     0.273513810178510d0     0.768103301812108d0
K_POINTS automatic
4 4 1  0 0 0 
