&CONTROL
  calculation='relax',
  prefix='calc',
  pseudo_dir='/storage/coda1/p-amedford6/0/shared/rich_project_chbe-medford/medford-share/data/pseudos_module/espresso/nninc/pbe/van',
  outdir='.',
  tefield=.true.,
  dipfield=.true.,
  tprnfor=.true.,
  disk_io='none',
/
&SYSTEM
  ibrav=0,
  celldm(1)=1.8897261245650618d0,
  nat=54,
  ntyp=5,
  ecutwfc=29.39945797996531d00,
  ecutrho=293.9945797996531d00,
  nbnd=210,
  occupations='smearing',
  smearing='fd',
  degauss=0.007349864494991328d00,
  input_dft='BEEF-vdW',
  edir=3,
  emaxpos=0.04790196955877768d00,
  eopreg=0.025d00,
  eamp=0.0d00,
  nosym=.false.,
  noinv=.false.,
  nosym_evc=.false.,
  no_t_rev=.false.,
/
&ELECTRONS
  diagonalization='david',
  conv_thr=7.349864494991327e-08,
  mixing_beta=0.05d00,
  electron_maxstep=1000,
  startingpot='file',
  startingwfc='atomic',
/
&IONS
  ion_dynamics='ipi',
/
&CELL
  cell_dynamics='ipi',
/
CELL_PARAMETERS alat
    6.579727202290808d0     0.000000000000000d0     0.000000000000000d0
   -0.000775132442404d0     5.961596420607155d0     0.000000000000000d0
    0.000000000000000d0    -0.000000000000000d0    25.155947251439940d0
ATOMIC_SPECIES
Ti1 47.867d00 Ti.UPF
O1 15.999d00 O.UPF
C1 12.011d00 C.UPF
H1 1.008d00 H.UPF
N1 14.007d00 N.UPF
ATOMIC_POSITIONS {crystal}
Ti1      0.000123603383822d0     0.499897385958537d0     0.238512187198856d0
Ti1      0.500142521004230d0     0.250038178055688d0     0.238522014307695d0
O1       0.000095322930372d0     0.000084774873452d0     0.317452257936818d0
O1       0.500112315057126d0     0.000084209992886d0     0.290342007718641d0
O1       0.698270105622955d0     0.250236102495782d0     0.369213011426276d0
O1       0.301995368073695d0     0.249987007385122d0     0.369214717028816d0
Ti1      0.504715108949643d0     0.508731660940010d0     0.364025767601817d0
Ti1      0.004472061828157d0     0.271054206940932d0     0.372208378743560d0
O1       0.502611235518905d0     0.001715346581372d0     0.451109780829914d0
O1       0.001350978613600d0     0.001622494679146d0     0.421831381907262d0
O1       0.198074579470122d0     0.251297457090171d0     0.502633449012016d0
O1       0.806149795910723d0     0.251785181197341d0     0.502687221636507d0
Ti1      0.006193051881568d0     0.504293441706900d0     0.509274988830354d0
Ti1      0.508635142312689d0     0.252712973887264d0     0.496551015701003d0
O1       0.002040998125066d0     0.000162036318483d0     0.585337756211075d0
O1       0.502954718038105d0     0.000980913272167d0     0.554038210445160d0
O1       0.691551438515335d0     0.250689930650395d0     0.640045013896531d0
O1       0.312860809544459d0     0.250651010880892d0     0.640057658307453d0
Ti1      0.502175251788011d0     0.500095962587410d0     0.625028225106036d0
Ti1      0.004034643576686d0     0.229530264318810d0     0.640047379130102d0
O1       0.500093721748991d0     0.000084921243389d0     0.186906639369252d0
O1       0.002553131292423d0     0.998312592199569d0     0.685739386135559d0
O1       0.198268504441574d0     0.250236248865719d0     0.238667392858710d0
O1       0.801993766892314d0     0.249987153755059d0     0.238669098461250d0
Ti1      0.000123603383822d0     0.999897385958537d0     0.238512187198856d0
Ti1      0.500142521004230d0     0.750038178055688d0     0.238522014307695d0
O1       0.000095322930372d0     0.500084774873452d0     0.317452257936818d0
O1       0.500112315057126d0     0.500084209992886d0     0.290342007718641d0
O1       0.698270105622955d0     0.750236102495782d0     0.369213011426276d0
O1       0.301995368073695d0     0.749987007385122d0     0.369214717028816d0
Ti1      0.502577075961125d0     0.009342447506448d0     0.363889371712813d0
Ti1      0.005095268127975d0     0.761471030629336d0     0.368577273995264d0
O1       0.502628070231241d0     0.501577692100720d0     0.451135851716474d0
O1       0.001372707121210d0     0.502105884849289d0     0.420309676947196d0
O1       0.198280943864684d0     0.752313308531737d0     0.502506124410818d0
O1       0.805892779678002d0     0.751356434125744d0     0.502600201527543d0
Ti1      0.006832092071124d0     0.004156438077838d0     0.498026882692845d0
Ti1      0.508502192504827d0     0.752868460949849d0     0.496450555471351d0
O1       0.005026929598634d0     0.504924962457696d0     0.584452580170057d0
O1       0.502455780230758d0     0.500521103458291d0     0.553749512843304d0
O1       0.691340990611996d0     0.749516297602825d0     0.639788680358748d0
O1       0.312632021995719d0     0.749545632460217d0     0.639568672121598d0
Ti1      0.503903400328686d0     0.000483392068596d0     0.625259593467883d0
Ti1      0.004557377698931d0     0.759194024844869d0     0.635549945543412d0
O1       0.500093721748991d0     0.500084921243389d0     0.186906639369252d0
O1       0.198268504441574d0     0.750236248865719d0     0.238667392858710d0
O1       0.801993766892315d0     0.749987153755059d0     0.238669098461250d0
C1       0.926255862799834d0     0.505990140613704d0     0.742500935358760d0
O1       0.997809446326943d0     0.500602394046111d0     0.689476954552357d0
H1       0.761248159887292d0     0.481831684916464d0     0.743695411138769d0
H1       0.998026729191414d0     0.371501657497979d0     0.765252314507219d0
H1       0.962405526515403d0     0.668127019544563d0     0.760291454361378d0
N1       0.916313453416063d0     0.514854237641839d0     0.908897299748303d0
N1       0.804058594309957d0     0.525544003358621d0     0.876388414232502d0
K_POINTS automatic
4 4 1  0 0 0 
