&CONTROL
  calculation='relax',
  prefix='calc',
  pseudo_dir='/storage/coda1/p-amedford6/0/shared/rich_project_chbe-medford/medford-share/data/pseudos_module/espresso/nninc/pbe/van',
  outdir='.',
  tefield=.true.,
  dipfield=.true.,
  tprnfor=.true.,
  disk_io='none',
/
&SYSTEM
  ibrav=0,
  celldm(1)=1.8897261245650618d0,
  nat=54,
  ntyp=5,
  ecutwfc=29.39945797996531d00,
  ecutrho=293.9945797996531d00,
  nbnd=206,
  occupations='smearing',
  smearing='fd',
  degauss=0.007349864494991328d00,
  input_dft='BEEF-vdW',
  edir=3,
  emaxpos=0.9928769774190075d00,
  eopreg=0.025d00,
  eamp=0.0d00,
  nosym=.false.,
  noinv=.false.,
  nosym_evc=.false.,
  no_t_rev=.false.,
/
&ELECTRONS
  diagonalization='david',
  conv_thr=7.349864494991327e-08,
  mixing_beta=0.05d00,
  electron_maxstep=1000,
  startingpot='file',
  startingwfc='atomic',
/
&IONS
  ion_dynamics='ipi',
/
&CELL
  cell_dynamics='ipi',
/
CELL_PARAMETERS alat
    6.579727202290808d0     0.000000000000000d0     0.000000000000000d0
   -0.000775132442404d0     5.961596420607155d0     0.000000000000000d0
    0.000000000000000d0    -0.000000000000000d0    25.155947251439940d0
ATOMIC_SPECIES
Ti1 47.867d00 Ti.UPF
O1 15.999d00 O.UPF
N1 14.007d00 N.UPF
C1 12.011d00 C.UPF
H1 1.008d00 H.UPF
ATOMIC_POSITIONS {crystal}
Ti1      0.000123603383822d0     0.499897385958536d0     0.238512187198856d0
Ti1      0.500142521004230d0     0.250038178055688d0     0.238522014307695d0
O1       0.000095322930372d0     0.000084774873452d0     0.317452257936818d0
O1       0.500112315057126d0     0.000084209992886d0     0.290342007718641d0
O1       0.698270105622955d0     0.250236102495782d0     0.369213011426276d0
O1       0.301995368073695d0     0.249987007385122d0     0.369214717028816d0
Ti1      0.500198167309398d0     0.485761668506182d0     0.364758343030283d0
Ti1      0.000261424674789d0     0.248709163236136d0     0.368424970923767d0
O1       0.500040025693076d0     0.999344852170430d0     0.452216910098534d0
O1       0.001882992193933d0     0.999479849154423d0     0.422099495650131d0
O1       0.195972948086249d0     0.249301220409728d0     0.504616930599416d0
O1       0.804900761607470d0     0.248811236842105d0     0.504083693236630d0
Ti1      0.001513112192672d0     0.498057179058027d0     0.497233008361727d0
Ti1      0.503217940617319d0     0.247309343510330d0     0.498116878297020d0
O1       0.999186562148540d0     0.986342305572949d0     0.584322521646486d0
O1       0.501348141260300d0     0.997231242173118d0     0.556570405545370d0
O1       0.688108389591892d0     0.254724717838882d0     0.642609906566978d0
O1       0.305860067834291d0     0.254353471520534d0     0.641536323025487d0
Ti1      0.498601863128435d0     0.501911928247201d0     0.626338231773637d0
Ti1      0.001448163088821d0     0.218897067277698d0     0.630754138416590d0
O1       0.500093721748991d0     0.000084921243389d0     0.186906639369252d0
O1       0.996071842274001d0     0.022512013053611d0     0.685532870452910d0
O1       0.198268504441574d0     0.250236248865719d0     0.238667392858710d0
O1       0.801993766892314d0     0.249987153755059d0     0.238669098461250d0
Ti1      0.000123603383822d0     0.999897385958536d0     0.238512187198856d0
Ti1      0.500142521004230d0     0.750038178055688d0     0.238522014307695d0
O1       0.000095322930372d0     0.500084774873452d0     0.317452257936818d0
O1       0.500112315057126d0     0.500084209992886d0     0.290342007718641d0
O1       0.698270105622955d0     0.750236102495782d0     0.369213011426276d0
O1       0.301995368073695d0     0.749987007385122d0     0.369214717028816d0
Ti1      0.500001644927041d0     0.985370751416071d0     0.364779031055315d0
Ti1      0.000183276761494d0     0.748948988039575d0     0.368476322807288d0
O1       0.500591576332871d0     0.497153687792362d0     0.451982715548108d0
O1       0.001460782485842d0     0.499964783615161d0     0.422656139091726d0
O1       0.196498638393952d0     0.747116517021827d0     0.503239364091646d0
O1       0.804659668257877d0     0.747597568334038d0     0.502772463325525d0
Ti1      0.003197750511132d0     0.996314187163368d0     0.497010578214677d0
Ti1      0.503401076392025d0     0.746906453106878d0     0.497757509698860d0
O1       0.995039880349692d0     0.507596834462003d0     0.594976197419178d0
O1       0.501092109712884d0     0.501830494237257d0     0.555253598521876d0
O1       0.685780774078160d0     0.750423751673474d0     0.645417385299018d0
O1       0.304491604921152d0     0.748898797066274d0     0.644788439706502d0
Ti1      0.500586525974495d0     0.001901631444685d0     0.627973893167190d0
Ti1      0.003251292475100d0     0.757769223051812d0     0.638316156916072d0
O1       0.500093721748991d0     0.500084921243389d0     0.186906639369252d0
O1       0.198268504441574d0     0.750236248865719d0     0.238667392858710d0
O1       0.801993766892315d0     0.749987153755059d0     0.238669098461250d0
N1       0.962681709377069d0     0.564012126612799d0     0.720586793690238d0
C1       0.133741846598128d0     0.547490995541958d0     0.758468007559664d0
H1       0.215838439546822d0     0.705702073798982d0     0.758312534286654d0
H1       0.080538314870041d0     0.510928385389943d0     0.798847315468763d0
H1       0.235243393983744d0     0.414253504243669d0     0.745542633796006d0
H1       0.865467625328207d0     0.687297381457729d0     0.732163313618633d0
H1       0.880126312119752d0     0.419319738953988d0     0.721148283176340d0
K_POINTS automatic
4 4 1  0 0 0 
