&CONTROL
  calculation='relax',
  prefix='calc',
  pseudo_dir='/storage/coda1/p-amedford6/0/shared/rich_project_chbe-medford/medford-share/data/pseudos_module/espresso/nninc/pbe/van',
  outdir='.',
  tefield=.true.,
  dipfield=.true.,
  tprnfor=.true.,
  disk_io='none',
/
&SYSTEM
  ibrav=0,
  celldm(1)=1.8897261245650618d0,
  nat=55,
  ntyp=5,
  ecutwfc=29.39945797996531d00,
  ecutrho=293.9945797996531d00,
  nbnd=208,
  occupations='smearing',
  smearing='fd',
  degauss=0.007349864494991328d00,
  input_dft='BEEF-vdW',
  edir=3,
  emaxpos=0.9871755640649899d00,
  eopreg=0.025d00,
  eamp=0.0d00,
  nosym=.false.,
  noinv=.false.,
  nosym_evc=.false.,
  no_t_rev=.false.,
/
&ELECTRONS
  diagonalization='david',
  conv_thr=7.349864494991327e-08,
  mixing_beta=0.05d00,
  electron_maxstep=1000,
  startingwfc='atomic',
/
&IONS
  ion_dynamics='ipi',
/
&CELL
  cell_dynamics='ipi',
/
CELL_PARAMETERS alat
    6.579727202290808d0     0.000000000000000d0     0.000000000000000d0
   -0.000775132442404d0     5.961596420607155d0     0.000000000000000d0
    0.000000000000000d0    -0.000000000000000d0    25.155947251439940d0
ATOMIC_SPECIES
Ti1 47.867d00 Ti.UPF
O1 15.999d00 O.UPF
N1 14.007d00 N.UPF
C1 12.011d00 C.UPF
H1 1.008d00 H.UPF
ATOMIC_POSITIONS {crystal}
Ti1      0.000123603383822d0     0.499897385958536d0     0.238512187198856d0
Ti1      0.500142521004230d0     0.250038178055688d0     0.238522014307695d0
O1       0.000095322930372d0     0.000084774873452d0     0.317452257936818d0
O1       0.500112315057126d0     0.000084209992886d0     0.290342007718641d0
O1       0.698270105622955d0     0.250236102495782d0     0.369213011426276d0
O1       0.301995368073695d0     0.249987007385122d0     0.369214717028816d0
Ti1      0.500198167309398d0     0.485761668506182d0     0.364758343030283d0
Ti1      0.000261424674789d0     0.248709163236136d0     0.368424970923767d0
O1       0.498047949072661d0     0.001585721191283d0     0.451659863090356d0
O1       0.001882992193933d0     0.999479849154423d0     0.422099495650131d0
O1       0.195381715674753d0     0.254117455958951d0     0.503236132272546d0
O1       0.802242455260580d0     0.254676256697439d0     0.501763957247860d0
Ti1      0.999147316324953d0     0.504916424422860d0     0.498581579369201d0
Ti1      0.500523093212201d0     0.254256271484679d0     0.496654760001644d0
O1       0.988938001375327d0     0.015919587742389d0     0.583449776568967d0
O1       0.503884621085390d0     0.004773909383215d0     0.556235837055300d0
O1       0.682666400539914d0     0.259610632132480d0     0.646706544339921d0
O1       0.302481576743041d0     0.252883052893816d0     0.642002569063378d0
Ti1      0.489341278665304d0     0.499280199368247d0     0.624910454596043d0
Ti1      0.986858446286915d0     0.237722476391926d0     0.640987198064203d0
O1       0.500093721748991d0     0.000084921243389d0     0.186906639369252d0
O1       0.994864546464962d0     0.985011926136351d0     0.685025064103970d0
O1       0.198268504441574d0     0.250236248865719d0     0.238667392858710d0
O1       0.801993766892314d0     0.249987153755059d0     0.238669098461250d0
Ti1      0.000123603383822d0     0.999897385958536d0     0.238512187198856d0
Ti1      0.500142521004230d0     0.750038178055688d0     0.238522014307695d0
O1       0.000095322930372d0     0.500084774873452d0     0.317452257936818d0
O1       0.500112315057126d0     0.500084209992886d0     0.290342007718641d0
O1       0.698270105622955d0     0.750236102495782d0     0.369213011426276d0
O1       0.301995368073695d0     0.749987007385122d0     0.369214717028816d0
Ti1      0.500001644927041d0     0.985370751416071d0     0.364779031055315d0
Ti1      0.000183276761494d0     0.748948988039575d0     0.368476322807288d0
O1       0.497718338799939d0     0.504443864200248d0     0.451359217147127d0
O1       0.001460782485842d0     0.499964783615161d0     0.422656139091726d0
O1       0.194767775001539d0     0.753724918346083d0     0.504870770274659d0
O1       0.802411793834352d0     0.753003822169077d0     0.503027100949703d0
Ti1      0.999902456810030d0     0.007346533119418d0     0.497420335436530d0
Ti1      0.500966750900564d0     0.753896543218834d0     0.497608729786435d0
O1       0.988606350085931d0     0.500255021033880d0     0.591589480567312d0
O1       0.501479244086676d0     0.500390656097174d0     0.554186540164620d0
O1       0.681604139071706d0     0.744867991634521d0     0.646184440978401d0
O1       0.303296175835775d0     0.752802792120513d0     0.638532270602794d0
Ti1      0.495854161972996d0     0.004855539026494d0     0.627333800060001d0
Ti1      0.007041233446083d0     0.774215173574161d0     0.627248396655873d0
O1       0.500093721748991d0     0.500084921243389d0     0.186906639369252d0
O1       0.198268504441574d0     0.750236248865719d0     0.238667392858710d0
O1       0.801993766892315d0     0.749987153755059d0     0.238669098461250d0
N1       0.011479198808905d0     0.473242447084261d0     0.712889693599965d0
C1       0.157094833049316d0     0.438783995086767d0     0.749495262936103d0
H1       0.154144668768525d0     0.522593983932064d0     0.787444488760727d0
H1       0.282088980084947d0     0.332682130099849d0     0.738135375979214d0
N1       0.845710321457380d0     0.600559478069255d0     0.735739685075805d0
H1       0.902379460645174d0     0.746310916230858d0     0.752180372880936d0
H1       0.750163484680311d0     0.656314225418912d0     0.703792836016549d0
H1       0.768290712736749d0     0.507450956914607d0     0.763711193346921d0
K_POINTS automatic
4 4 1  0 0 0 
