&CONTROL
  calculation='relax',
  prefix='calc',
  pseudo_dir='/storage/coda1/p-amedford6/0/shared/rich_project_chbe-medford/medford-share/data/pseudos_module/espresso/nninc/pbe/van',
  outdir='.',
  tefield=.true.,
  dipfield=.true.,
  tprnfor=.true.,
  disk_io='none',
/
&SYSTEM
  ibrav=0,
  celldm(1)=1.8897261245650618d0,
  nat=53,
  ntyp=5,
  ecutwfc=29.39945797996531d00,
  ecutrho=293.9945797996531d00,
  nbnd=210,
  occupations='smearing',
  smearing='fd',
  degauss=0.007349864494991328d00,
  input_dft='BEEF-vdW',
  edir=3,
  emaxpos=0.9862105775155496d00,
  eopreg=0.025d00,
  eamp=0.0d00,
  nosym=.false.,
  noinv=.false.,
  nosym_evc=.false.,
  no_t_rev=.false.,
/
&ELECTRONS
  diagonalization='david',
  conv_thr=7.349864494991327e-08,
  mixing_beta=0.05d00,
  electron_maxstep=1000,
  startingpot='file',
  startingwfc='atomic',
/
&IONS
  ion_dynamics='ipi',
/
&CELL
  cell_dynamics='ipi',
/
CELL_PARAMETERS alat
    6.579727202290808d0     0.000000000000000d0     0.000000000000000d0
   -0.000775132442404d0     5.961596420607155d0     0.000000000000000d0
    0.000000000000000d0    -0.000000000000000d0    25.155947251439940d0
ATOMIC_SPECIES
Ti1 47.867d00 Ti.UPF
O1 15.999d00 O.UPF
N1 14.007d00 N.UPF
C1 12.011d00 C.UPF
H1 1.008d00 H.UPF
ATOMIC_POSITIONS {crystal}
Ti1      0.000123603383822d0     0.499897385958536d0     0.238512187198856d0
Ti1      0.500142521004230d0     0.250038178055688d0     0.238522014307695d0
O1       0.000095322930372d0     0.000084774873452d0     0.317452257936818d0
O1       0.500112315057126d0     0.000084209992886d0     0.290342007718641d0
O1       0.698270105622955d0     0.250236102495782d0     0.369213011426276d0
O1       0.301995368073695d0     0.249987007385122d0     0.369214717028816d0
Ti1      0.500690620468350d0     0.481382371882070d0     0.364464769685504d0
Ti1      0.000487687244846d0     0.240365369603211d0     0.372744708625867d0
O1       0.501569411268504d0     0.999421178248190d0     0.451383942007424d0
O1       0.999099397799903d0     0.997751957200162d0     0.419830791528320d0
O1       0.194303702293017d0     0.248243851601735d0     0.501425802109138d0
O1       0.801810127876644d0     0.248265567510885d0     0.503388866846695d0
Ti1      0.011714597765105d0     0.495773872641611d0     0.509096556285391d0
Ti1      0.515301234364471d0     0.248057068954755d0     0.496711883275178d0
O1       0.013438811082277d0     0.997298046873590d0     0.582445775539837d0
O1       0.493099764974625d0     0.999837064311772d0     0.553978189720450d0
O1       0.697322043660651d0     0.249836690018483d0     0.635973754033554d0
O1       0.318084385583699d0     0.250320609481420d0     0.639126166381754d0
Ti1      0.514039546903348d0     0.498992912815628d0     0.627538374105706d0
Ti1      0.020262125608965d0     0.252900764518146d0     0.641766807255658d0
O1       0.500093721748991d0     0.000084921243389d0     0.186906639369252d0
O1       0.996682874737968d0     0.999954280632342d0     0.684069978294996d0
O1       0.198268504441574d0     0.250236248865719d0     0.238667392858710d0
O1       0.801993766892314d0     0.249987153755059d0     0.238669098461250d0
Ti1      0.000123603383822d0     0.999897385958536d0     0.238512187198856d0
Ti1      0.500142521004230d0     0.750038178055688d0     0.238522014307695d0
O1       0.000095322930372d0     0.500084774873452d0     0.317452257936818d0
O1       0.500112315057126d0     0.500084209992886d0     0.290342007718641d0
O1       0.698270105622955d0     0.750236102495782d0     0.369213011426276d0
O1       0.301995368073695d0     0.749987007385122d0     0.369214717028816d0
Ti1      0.499851167272281d0     0.981089128167285d0     0.364694158047402d0
Ti1      0.000325073634761d0     0.740109021365413d0     0.372865385040039d0
O1       0.502630040186306d0     0.498643313529480d0     0.451033078967244d0
O1       0.998720806121539d0     0.497477133608588d0     0.419829052812827d0
O1       0.193126399244800d0     0.747693643374899d0     0.501195022162038d0
O1       0.802159617525832d0     0.749171066212047d0     0.503235004371090d0
Ti1      0.013285597265486d0     0.996298013627471d0     0.508857096725587d0
Ti1      0.516577004183310d0     0.745172165502901d0     0.497771626203127d0
O1       0.010268644170110d0     0.495127396340344d0     0.582223614358998d0
O1       0.493250796986322d0     0.504020645593532d0     0.553717313408361d0
O1       0.696932619493971d0     0.752169969283002d0     0.629272595970480d0
O1       0.304411605121317d0     0.743802498412645d0     0.639474333398846d0
Ti1      0.514841167344597d0     0.018120030657437d0     0.625740912489378d0
Ti1      0.983477400251449d0     0.753044692799956d0     0.640947042203791d0
O1       0.500093721748991d0     0.500084921243389d0     0.186906639369252d0
O1       0.987952334003457d0     0.499418325358316d0     0.683772757831615d0
O1       0.198268504441574d0     0.750236248865719d0     0.238667392858710d0
O1       0.801993766892315d0     0.749987153755059d0     0.238669098461250d0
N1       0.482405113599597d0     0.870481330898226d0     0.708493928928772d0
N1       0.385631617194261d0     0.676565205168095d0     0.693502852471715d0
C1       0.551584264381365d0     0.891647651079008d0     0.755863375858571d0
H1       0.531086443459452d0     0.761365719027854d0     0.785514515661847d0
H1       0.634705100956936d0     0.042896122219981d0     0.765086710509602d0
K_POINTS automatic
4 4 1  0 0 0 
