&CONTROL
  calculation='relax',
  prefix='calc',
  pseudo_dir='/storage/coda1/p-amedford6/0/shared/rich_project_chbe-medford/medford-share/data/pseudos_module/espresso/nninc/pbe/van',
  outdir='.',
  tefield=.true.,
  dipfield=.true.,
  tprnfor=.true.,
  disk_io='none',
/
&SYSTEM
  ibrav=0,
  celldm(1)=1.8897261245650618d0,
  nat=51,
  ntyp=4,
  ecutwfc=29.39945797996531d00,
  ecutrho=293.9945797996531d00,
  nbnd=205,
  occupations='smearing',
  smearing='fd',
  degauss=0.007349864494991328d00,
  input_dft='BEEF-vdW',
  edir=3,
  emaxpos=0.9799078948968913d00,
  eopreg=0.025d00,
  eamp=0.0d00,
  nosym=.false.,
  noinv=.false.,
  nosym_evc=.false.,
  no_t_rev=.false.,
/
&ELECTRONS
  diagonalization='david',
  conv_thr=7.349864494991327e-08,
  mixing_beta=0.05d00,
  electron_maxstep=1000,
  startingwfc='atomic',
/
&IONS
  ion_dynamics='ipi',
/
&CELL
  cell_dynamics='ipi',
/
CELL_PARAMETERS alat
    6.579727202290808d0     0.000000000000000d0     0.000000000000000d0
   -0.000775132442404d0     5.961596420607155d0     0.000000000000000d0
    0.000000000000000d0    -0.000000000000000d0    25.155947251439940d0
ATOMIC_SPECIES
Ti1 47.867d00 Ti.UPF
O1 15.999d00 O.UPF
H1 1.008d00 H.UPF
N1 14.007d00 N.UPF
ATOMIC_POSITIONS {crystal}
Ti1      0.000123603383822d0     0.499897385958536d0     0.238512187198856d0
Ti1      0.500142521004230d0     0.250038178055688d0     0.238522014307695d0
O1       0.000095322930372d0     0.000084774873452d0     0.317452257936818d0
O1       0.500112315057126d0     0.000084209992886d0     0.290342007718641d0
O1       0.698270105622955d0     0.250236102495782d0     0.369213011426276d0
O1       0.301995368073695d0     0.249987007385122d0     0.369214717028816d0
Ti1      0.500213098169677d0     0.487155223060841d0     0.364385940305882d0
Ti1      0.000305005356159d0     0.243772826321524d0     0.368207799845357d0
O1       0.496849226537205d0     0.000704103516938d0     0.451033299139916d0
O1       0.999698615664777d0     0.999769279971406d0     0.421426633374970d0
O1       0.193764382901422d0     0.249952108922428d0     0.503396689593304d0
O1       0.800905269361975d0     0.250643530837473d0     0.502362184576246d0
Ti1      0.995738531235128d0     0.503453695784250d0     0.508688178981921d0
Ti1      0.496440864017828d0     0.250316690631131d0     0.497023639459017d0
O1       0.989819195107686d0     0.995074285386750d0     0.582510919052324d0
O1       0.500688277455414d0     0.997536464162464d0     0.554731290378743d0
O1       0.684584638248015d0     0.253710340878891d0     0.640953582275724d0
O1       0.302893121316932d0     0.248506961618103d0     0.637053360250437d0
Ti1      0.491686371493315d0     0.498813132097337d0     0.625346574554977d0
Ti1      0.997797671613083d0     0.218804580761998d0     0.631985715517512d0
O1       0.500093721748991d0     0.000084921243389d0     0.186906639369252d0
O1       0.995640949841028d0     0.011850463710076d0     0.683993668715544d0
O1       0.198268504441574d0     0.250236248865719d0     0.238667392858710d0
O1       0.801993766892314d0     0.249987153755059d0     0.238669098461250d0
Ti1      0.000123603383822d0     0.999897385958536d0     0.238512187198856d0
Ti1      0.500142521004230d0     0.750038178055688d0     0.238522014307695d0
O1       0.000095322930372d0     0.500084774873452d0     0.317452257936818d0
O1       0.500112315057126d0     0.500084209992886d0     0.290342007718641d0
O1       0.698270105622955d0     0.750236102495782d0     0.369213011426276d0
O1       0.301995368073695d0     0.749987007385122d0     0.369214717028816d0
Ti1      0.500126898602403d0     0.987255193593828d0     0.364704218073107d0
Ti1      0.000259463730249d0     0.733994584475959d0     0.372190572797417d0
O1       0.496916200550741d0     0.498842026103517d0     0.450930296649041d0
O1       0.999880081136077d0     0.498804572298803d0     0.420499460510136d0
O1       0.193991947489760d0     0.750145544027948d0     0.502501704036673d0
O1       0.800600359549416d0     0.749351176400012d0     0.501534210116526d0
Ti1      0.996813070248709d0     0.002787899279099d0     0.497218439215091d0
Ti1      0.496358619874765d0     0.749385053791399d0     0.496490458982315d0
O1       0.993419069536481d0     0.504004993177325d0     0.585115338312467d0
O1       0.498337391849551d0     0.501368172976951d0     0.553876986102685d0
O1       0.685401192280713d0     0.744148767779126d0     0.642298182001931d0
O1       0.301840972404044d0     0.748681832270865d0     0.639437796367397d0
Ti1      0.499163080780334d0     0.999255796560925d0     0.626067892935995d0
Ti1      0.996374808067108d0     0.755013662908418d0     0.638327331755891d0
O1       0.500093721748991d0     0.500084921243389d0     0.186906639369252d0
O1       0.198268504441574d0     0.750236248865719d0     0.238667392858710d0
O1       0.801993766892315d0     0.749987153755059d0     0.238669098461250d0
H1       0.085211227901524d0     0.433283782558672d0     0.772909150424530d0
N1       0.141535566043876d0     0.495015586781117d0     0.737498497575905d0
N1       0.991629066008164d0     0.533948488298209d0     0.705233369652933d0
H1       0.849103875744084d0     0.505627443741515d0     0.720796626532583d0
K_POINTS automatic
4 4 1  0 0 0 
