&CONTROL
  calculation='relax',
  prefix='calc',
  pseudo_dir='/storage/coda1/p-amedford6/0/shared/rich_project_chbe-medford/medford-share/data/pseudos_module/espresso/nninc/pbe/van',
  outdir='.',
  tefield=.true.,
  dipfield=.true.,
  tprnfor=.true.,
  disk_io='none',
/
&SYSTEM
  ibrav=0,
  celldm(1)=1.8897261245650618d0,
  nat=54,
  ntyp=5,
  ecutwfc=29.39945797996531d00,
  ecutrho=293.9945797996531d00,
  nbnd=210,
  occupations='smearing',
  smearing='fd',
  degauss=0.007349864494991328d00,
  input_dft='BEEF-vdW',
  edir=3,
  emaxpos=0.9808570738629488d00,
  eopreg=0.025d00,
  eamp=0.0d00,
  nosym=.false.,
  noinv=.false.,
  nosym_evc=.false.,
  no_t_rev=.false.,
/
&ELECTRONS
  diagonalization='david',
  conv_thr=7.349864494991327e-08,
  mixing_beta=0.05d00,
  electron_maxstep=1000,
  startingpot='file',
  startingwfc='atomic',
/
&IONS
  ion_dynamics='ipi',
/
&CELL
  cell_dynamics='ipi',
/
CELL_PARAMETERS alat
    6.579727202290808d0     0.000000000000000d0     0.000000000000000d0
   -0.000775132442404d0     5.961596420607155d0     0.000000000000000d0
    0.000000000000000d0    -0.000000000000000d0    25.155947251439940d0
ATOMIC_SPECIES
O1 15.999d00 O.UPF
Ti1 47.867d00 Ti.UPF
N1 14.007d00 N.UPF
H1 1.008d00 H.UPF
C1 12.011d00 C.UPF
ATOMIC_POSITIONS {crystal}
O1       0.500093721748991d0     0.000084921243389d0     0.186906639369252d0
O1       0.500093721748991d0     0.500084921243389d0     0.186906639369252d0
Ti1      0.000123603383822d0     0.499897385958536d0     0.238512187198856d0
Ti1      0.000123603383822d0     0.999897385958536d0     0.238512187198856d0
Ti1      0.500142521004230d0     0.250038178055688d0     0.238522014307695d0
Ti1      0.500142521004230d0     0.750038178055688d0     0.238522014307695d0
O1       0.198268504441574d0     0.250236248865719d0     0.238667392858710d0
O1       0.198268504441574d0     0.750236248865719d0     0.238667392858710d0
O1       0.801993766892314d0     0.249987153755059d0     0.238669098461250d0
O1       0.801993766892315d0     0.749987153755059d0     0.238669098461250d0
O1       0.500112315057126d0     0.000084209992886d0     0.290342007718641d0
O1       0.500112315057126d0     0.500084209992886d0     0.290342007718641d0
O1       0.000095322930372d0     0.000084774873452d0     0.317452257936818d0
O1       0.000095322930372d0     0.500084774873452d0     0.317452257936818d0
Ti1      0.500198167309398d0     0.485761668506182d0     0.364758343030283d0
Ti1      0.500001644927041d0     0.985370751416071d0     0.364779031055315d0
Ti1      0.000261424674789d0     0.248709163236136d0     0.368424970923767d0
Ti1      0.000183276761494d0     0.748948988039575d0     0.368476322807288d0
O1       0.698270105622955d0     0.250236102495782d0     0.369213011426276d0
O1       0.698270105622955d0     0.750236102495782d0     0.369213011426276d0
O1       0.301995368073695d0     0.249987007385122d0     0.369214717028816d0
O1       0.301995368073695d0     0.749987007385122d0     0.369214717028816d0
O1       0.001882992193933d0     0.999479849154423d0     0.422099495650131d0
O1       0.001460782485842d0     0.499964783615161d0     0.422656139091726d0
O1       0.499594212162389d0     0.001559567743911d0     0.449733492841230d0
O1       0.499387889556369d0     0.501528649125791d0     0.449758152241960d0
Ti1      0.480989763021110d0     0.251638896252973d0     0.495434315878754d0
Ti1      0.480812107402619d0     0.751591174907535d0     0.495324637856443d0
Ti1      0.985223984771308d0     0.004509616466106d0     0.503902533929915d0
O1       0.804496343086926d0     0.751534921971000d0     0.501571936194560d0
O1       0.804273088700138d0     0.250912418758796d0     0.501505933402363d0
O1       0.199573386370804d0     0.750681391821670d0     0.501281797089678d0
O1       0.199846871342239d0     0.249671758877546d0     0.501173647558162d0
Ti1      0.987138876057302d0     0.504675973747505d0     0.503942910777368d0
O1       0.500504538545937d0     0.503804996421553d0     0.552194846862223d0
O1       0.501305915104536d0     0.003015694526220d0     0.552123723126555d0
O1       0.999892582371008d0     0.998766164810768d0     0.580832315080735d0
O1       0.001017887337398d0     0.495927980224322d0     0.580364117777838d0
Ti1      0.500780763649958d0     0.507383384485273d0     0.623603066856689d0
Ti1      0.503002511550926d0     0.006840592850014d0     0.623432678760487d0
Ti1      0.000824794984850d0     0.274215058872161d0     0.636948344703958d0
O1       0.314359208906849d0     0.257744206372503d0     0.638033349433800d0
O1       0.688927030021117d0     0.758138163539293d0     0.638361113426932d0
O1       0.313737045929431d0     0.758513967580970d0     0.638096871946790d0
O1       0.689438833885518d0     0.257906835738165d0     0.637680908084630d0
Ti1      0.001931389427019d0     0.779502981294899d0     0.639130441397727d0
O1       0.002526138960900d0     0.013262558222525d0     0.683233565514460d0
N1       0.475130077729233d0     0.468477110324173d0     0.750164845058465d0
H1       0.792421126980575d0     0.486360900632853d0     0.740896807107945d0
N1       0.285777346376004d0     0.419820888574457d0     0.767308222710404d0
H1       0.182117778930063d0     0.466457813788233d0     0.738633754106057d0
C1       0.650922146790193d0     0.463665577784211d0     0.763181249551589d0
H1       0.272845450762630d0     0.252430980793523d0     0.774807508356645d0
O1       0.001281847014952d0     0.509740552993058d0     0.683801859944737d0
K_POINTS automatic
4 4 1  0 0 0 
