&CONTROL
  calculation='relax',
  prefix='calc',
  pseudo_dir='/storage/coda1/p-amedford6/0/shared/rich_project_chbe-medford/medford-share/data/pseudos_module/espresso/nninc/pbe/van',
  outdir='.',
  tefield=.true.,
  dipfield=.true.,
  tprnfor=.true.,
  disk_io='none',
/
&SYSTEM
  ibrav=0,
  celldm(1)=1.8897261245650618d0,
  nat=54,
  ntyp=5,
  ecutwfc=29.39945797996531d00,
  ecutrho=293.9945797996531d00,
  nbnd=208,
  occupations='smearing',
  smearing='fd',
  degauss=0.007349864494991328d00,
  input_dft='BEEF-vdW',
  edir=3,
  emaxpos=0.9776016179862566d00,
  eopreg=0.025d00,
  eamp=0.0d00,
  nosym=.false.,
  noinv=.false.,
  nosym_evc=.false.,
  no_t_rev=.false.,
/
&ELECTRONS
  diagonalization='david',
  conv_thr=7.349864494991327e-08,
  mixing_beta=0.05d00,
  electron_maxstep=1000,
  startingwfc='atomic',
/
&IONS
  ion_dynamics='ipi',
/
&CELL
  cell_dynamics='ipi',
/
CELL_PARAMETERS alat
    6.579727202290808d0     0.000000000000000d0     0.000000000000000d0
   -0.000775132442404d0     5.961596420607155d0     0.000000000000000d0
    0.000000000000000d0    -0.000000000000000d0    25.155947251439940d0
ATOMIC_SPECIES
Ti1 47.867d00 Ti.UPF
O1 15.999d00 O.UPF
N1 14.007d00 N.UPF
C1 12.011d00 C.UPF
H1 1.008d00 H.UPF
ATOMIC_POSITIONS {crystal}
Ti1      0.000123603383822d0     0.499897385958536d0     0.238512187198856d0
Ti1      0.500142521004230d0     0.250038178055688d0     0.238522014307695d0
O1       0.000095322930372d0     0.000084774873452d0     0.317452257936818d0
O1       0.500112315057126d0     0.000084209992886d0     0.290342007718641d0
O1       0.698270105622955d0     0.250236102495782d0     0.369213011426276d0
O1       0.301995368073695d0     0.249987007385122d0     0.369214717028816d0
Ti1      0.500198167309398d0     0.485761668506182d0     0.364758343030283d0
Ti1      0.000261424674789d0     0.248709163236136d0     0.368424970923767d0
O1       0.501925331489962d0     0.003510235351458d0     0.452531810175832d0
O1       0.001882992193933d0     0.999479849154423d0     0.422099495650131d0
O1       0.197724391655958d0     0.250786109526043d0     0.504461825327905d0
O1       0.806391007741255d0     0.252070425938668d0     0.504288763606002d0
Ti1      0.000969159592358d0     0.499380355646296d0     0.497345201561484d0
Ti1      0.502290014608709d0     0.257227606487823d0     0.498333544726109d0
O1       0.996875210060111d0     0.989662256483129d0     0.585023857765005d0
O1       0.504414715686641d0     0.996310748675313d0     0.557157314125117d0
O1       0.688980081329038d0     0.254252321106820d0     0.643367629430945d0
O1       0.305927834299237d0     0.252232861702763d0     0.641350955911316d0
Ti1      0.496707317405488d0     0.500132305435389d0     0.627277274216248d0
Ti1      0.999264408587202d0     0.222101685227046d0     0.632216898596783d0
O1       0.500093721748991d0     0.000084921243389d0     0.186906639369252d0
O1       0.999207534049516d0     0.019347810291460d0     0.686591093458382d0
O1       0.198268504441574d0     0.250236248865719d0     0.238667392858710d0
O1       0.801993766892314d0     0.249987153755059d0     0.238669098461250d0
Ti1      0.000123603383822d0     0.999897385958536d0     0.238512187198856d0
Ti1      0.500142521004230d0     0.750038178055688d0     0.238522014307695d0
O1       0.000095322930372d0     0.500084774873452d0     0.317452257936818d0
O1       0.500112315057126d0     0.500084209992886d0     0.290342007718641d0
O1       0.698270105622955d0     0.750236102495782d0     0.369213011426276d0
O1       0.301995368073695d0     0.749987007385122d0     0.369214717028816d0
Ti1      0.500001644927041d0     0.985370751416071d0     0.364779031055315d0
Ti1      0.000183276761494d0     0.748948988039575d0     0.368476322807288d0
O1       0.501427043025735d0     0.501929437144830d0     0.452364792100323d0
O1       0.001460782485842d0     0.499964783615161d0     0.422656139091726d0
O1       0.197615566821228d0     0.750162482866355d0     0.503575332235946d0
O1       0.806284916730620d0     0.748687452827329d0     0.503099657444744d0
Ti1      0.003303181306635d0     0.997899226091117d0     0.496987798668368d0
Ti1      0.503028742027108d0     0.756873965574776d0     0.498549509550832d0
O1       0.997443054978709d0     0.506855669817578d0     0.595576882028688d0
O1       0.500983063580666d0     0.501664477568897d0     0.555943677034789d0
O1       0.688902893168396d0     0.748673895169386d0     0.645779054081678d0
O1       0.305298660693507d0     0.749103398276749d0     0.644820403413647d0
Ti1      0.501067021617891d0     0.999995812943340d0     0.628675729823775d0
Ti1      0.999638547447787d0     0.761659194903734d0     0.637658597186000d0
O1       0.500093721748991d0     0.500084921243389d0     0.186906639369252d0
O1       0.198268504441574d0     0.750236248865719d0     0.238667392858710d0
O1       0.801993766892315d0     0.749987153755059d0     0.238669098461250d0
N1       0.150163549040955d0     0.450975690124306d0     0.753387247578645d0
N1       0.971593243744824d0     0.543574125320096d0     0.723248609755371d0
C1       0.310280118229513d0     0.556980147255707d0     0.768296596603261d0
H1       0.295709577739876d0     0.735934335099387d0     0.757539229113178d0
H1       0.133066434022650d0     0.280403664247383d0     0.757493652724100d0
H1       0.937954376004378d0     0.691197330783303d0     0.741434244071067d0
H1       0.849682986786396d0     0.440002931480426d0     0.730072539511950d0
K_POINTS automatic
4 4 1  0 0 0 
