&CONTROL
  calculation='relax',
  prefix='calc',
  pseudo_dir='/storage/coda1/p-amedford6/0/shared/rich_project_chbe-medford/medford-share/data/pseudos_module/espresso/nninc/pbe/van',
  outdir='.',
  tefield=.true.,
  dipfield=.true.,
  tprnfor=.true.,
  disk_io='none',
/
&SYSTEM
  ibrav=0,
  celldm(1)=1.8897261245650618d0,
  nat=58,
  ntyp=5,
  ecutwfc=29.39945797996531d00,
  ecutrho=293.9945797996531d00,
  nbnd=215,
  occupations='smearing',
  smearing='fd',
  degauss=0.007349864494991328d00,
  input_dft='BEEF-vdW',
  edir=3,
  emaxpos=0.04434244520952735d00,
  eopreg=0.025d00,
  eamp=0.0d00,
  nosym=.false.,
  noinv=.false.,
  nosym_evc=.false.,
  no_t_rev=.false.,
/
&ELECTRONS
  diagonalization='david',
  conv_thr=7.349864494991327e-08,
  mixing_beta=0.05d00,
  electron_maxstep=1000,
  startingpot='file',
  startingwfc='atomic',
/
&IONS
  ion_dynamics='ipi',
/
&CELL
  cell_dynamics='ipi',
/
CELL_PARAMETERS alat
    6.579727202290808d0     0.000000000000000d0     0.000000000000000d0
   -0.000775132442404d0     5.961596420607155d0     0.000000000000000d0
    0.000000000000000d0    -0.000000000000000d0    25.155947251439940d0
ATOMIC_SPECIES
Ti1 47.867d00 Ti.UPF
O1 15.999d00 O.UPF
C1 12.011d00 C.UPF
H1 1.008d00 H.UPF
N1 14.007d00 N.UPF
ATOMIC_POSITIONS {crystal}
Ti1      0.000123603383822d0     0.499897385958537d0     0.238512187198856d0
Ti1      0.500142521004230d0     0.250038178055688d0     0.238522014307695d0
O1       0.000095322930372d0     0.000084774873452d0     0.317452257936818d0
O1       0.500112315057126d0     0.000084209992886d0     0.290342007718641d0
O1       0.698270105622955d0     0.250236102495782d0     0.369213011426276d0
O1       0.301995368073695d0     0.249987007385122d0     0.369214717028816d0
Ti1      0.505410444828523d0     0.501858575199593d0     0.364126813038870d0
Ti1      0.006301995716296d0     0.249999734718790d0     0.368335459346508d0
O1       0.499296675881146d0     0.001961148530981d0     0.452194498172614d0
O1       0.998546308074297d0     0.000455847990077d0     0.421578282317578d0
O1       0.193929758082130d0     0.251104287034365d0     0.502506013215910d0
O1       0.802447994827236d0     0.251359541628130d0     0.503626023154360d0
Ti1      0.996013926843000d0     0.501047284500938d0     0.498285162709521d0
Ti1      0.494037293811276d0     0.251536326714363d0     0.497755542448475d0
O1       0.005824137433304d0     0.000784664520094d0     0.583510515242700d0
O1       0.494517279851053d0     0.001604848633256d0     0.557802794634509d0
O1       0.696950982806021d0     0.261842242845733d0     0.638573111627335d0
O1       0.309218786365025d0     0.259002418823114d0     0.643990846705643d0
Ti1      0.502490901110535d0     0.503951713176133d0     0.624362220208561d0
Ti1      0.996262675661238d0     0.239305998290504d0     0.630767891191331d0
O1       0.500093721748991d0     0.000084921243389d0     0.186906639369252d0
O1       0.987490600145453d0     0.002117674204456d0     0.684678469323249d0
O1       0.198268504441574d0     0.250236248865719d0     0.238667392858710d0
O1       0.801993766892314d0     0.249987153755059d0     0.238669098461250d0
Ti1      0.000123603383822d0     0.999897385958537d0     0.238512187198856d0
Ti1      0.500142521004230d0     0.750038178055688d0     0.238522014307695d0
O1       0.000095322930372d0     0.500084774873452d0     0.317452257936818d0
O1       0.500112315057126d0     0.500084209992886d0     0.290342007718641d0
O1       0.698270105622955d0     0.750236102495782d0     0.369213011426276d0
O1       0.301995368073695d0     0.749987007385122d0     0.369214717028816d0
Ti1      0.504497955732667d0     0.001900718797210d0     0.363894185329894d0
Ti1      0.006381289158382d0     0.747952019181377d0     0.368436231032049d0
O1       0.498883172622330d0     0.501481830779146d0     0.451885297123757d0
O1       0.998764644864655d0     0.500290460118207d0     0.422369994190964d0
O1       0.193884443968029d0     0.751571857182557d0     0.502303954508202d0
O1       0.802429008617085d0     0.751180787299694d0     0.503369919115847d0
Ti1      0.995580020969501d0     0.000539279684384d0     0.496132828152802d0
Ti1      0.494141775233584d0     0.752848859019277d0     0.497678208314048d0
O1       0.007191512253782d0     0.502025646250794d0     0.590177649592984d0
O1       0.494219146300447d0     0.502817618795530d0     0.553670908273776d0
O1       0.697168949659659d0     0.741478119832345d0     0.639944187127617d0
O1       0.310417931798758d0     0.747770839861855d0     0.644780623702423d0
Ti1      0.496200488354274d0     0.004908324305805d0     0.630352818916195d0
Ti1      0.999571329512613d0     0.774444962977977d0     0.634546806625169d0
O1       0.500093721748991d0     0.500084921243389d0     0.186906639369252d0
O1       0.198268504441574d0     0.750236248865719d0     0.238667392858710d0
O1       0.801993766892315d0     0.749987153755059d0     0.238669098461250d0
C1       0.916537626769117d0     0.487292483751058d0     0.752711862698837d0
O1       0.024003523530574d0     0.495108883142646d0     0.702513264836363d0
H1       0.755630466305145d0     0.483409263443910d0     0.743330478140591d0
H1       0.169251790215528d0     0.473343531290501d0     0.708103125580952d0
H1       0.957299368719769d0     0.334681576977301d0     0.773956404936065d0
H1       0.953494151966004d0     0.636402890499408d0     0.775838534830920d0
N1       0.742355809804608d0     0.520875480131379d0     0.901778251049802d0
N1       0.648736626674461d0     0.560316658650714d0     0.866476961790378d0
O1       0.589275686632527d0     0.019143296828322d0     0.727619798620786d0
H1       0.735702834166925d0     0.011622432990891d0     0.718384298465990d0
H1       0.557575903128292d0     0.874307301454287d0     0.743273615440099d0
K_POINTS automatic
4 4 1  0 0 0 
