&CONTROL
  calculation='relax',
  prefix='calc',
  pseudo_dir='/storage/coda1/p-amedford6/0/shared/rich_project_chbe-medford/medford-share/data/pseudos_module/espresso/nninc/pbe/van',
  outdir='.',
  tefield=.true.,
  dipfield=.true.,
  tprnfor=.true.,
  disk_io='none',
/
&SYSTEM
  ibrav=0,
  celldm(1)=1.8897261245650618d0,
  nat=56,
  ntyp=5,
  ecutwfc=29.39945797996531d00,
  ecutrho=293.9945797996531d00,
  nbnd=211,
  occupations='smearing',
  smearing='fd',
  degauss=0.007349864494991328d00,
  input_dft='BEEF-vdW',
  edir=3,
  emaxpos=0.0019434099573414354d00,
  eopreg=0.025d00,
  eamp=0.0d00,
  nosym=.false.,
  noinv=.false.,
  nosym_evc=.false.,
  no_t_rev=.false.,
/
&ELECTRONS
  diagonalization='david',
  conv_thr=7.349864494991327e-08,
  mixing_beta=0.05d00,
  electron_maxstep=1000,
  startingpot='file',
  startingwfc='atomic',
/
&IONS
  ion_dynamics='ipi',
/
&CELL
  cell_dynamics='ipi',
/
CELL_PARAMETERS alat
    6.579727202290808d0     0.000000000000000d0     0.000000000000000d0
   -0.000775132442404d0     5.961596420607155d0     0.000000000000000d0
    0.000000000000000d0    -0.000000000000000d0    25.155947251439940d0
ATOMIC_SPECIES
Ti1 47.867d00 Ti.UPF
O1 15.999d00 O.UPF
N1 14.007d00 N.UPF
C1 12.011d00 C.UPF
H1 1.008d00 H.UPF
ATOMIC_POSITIONS {crystal}
Ti1      0.000123603383822d0     0.499897385958536d0     0.238512187198856d0
Ti1      0.500142521004230d0     0.250038178055688d0     0.238522014307695d0
O1       0.000095322930372d0     0.000084774873452d0     0.317452257936818d0
O1       0.500112315057126d0     0.000084209992886d0     0.290342007718641d0
O1       0.698270105622955d0     0.250236102495782d0     0.369213011426276d0
O1       0.301995368073695d0     0.249987007385122d0     0.369214717028816d0
Ti1      0.500198167309398d0     0.485761668506182d0     0.364758343030283d0
Ti1      0.000261424674789d0     0.248709163236136d0     0.368424970923767d0
O1       0.501690196267111d0     0.997444274625105d0     0.451026590755941d0
O1       0.001882992193933d0     0.999479849154423d0     0.422099495650131d0
O1       0.200523932052337d0     0.247725872363704d0     0.501823040876153d0
O1       0.806476864757798d0     0.246551119117107d0     0.501644464352517d0
Ti1      0.992969318667170d0     0.493908640592735d0     0.501466141055392d0
Ti1      0.489748851110444d0     0.246183643527979d0     0.496955408662872d0
O1       0.001095127088303d0     0.997571280399881d0     0.581782572012973d0
O1       0.502088673807307d0     0.997140411888562d0     0.555249009603632d0
O1       0.693499791226706d0     0.255410234846179d0     0.639186147225455d0
O1       0.311204711966952d0     0.255075800519173d0     0.636765660109290d0
Ti1      0.503746186745301d0     0.496641338093142d0     0.623744707962408d0
Ti1      0.997944529287534d0     0.253250534637464d0     0.628071440011513d0
O1       0.500093721748991d0     0.000084921243389d0     0.186906639369252d0
O1       0.004093979030356d0     0.001453555892996d0     0.683684299354486d0
O1       0.198268504441574d0     0.250236248865719d0     0.238667392858710d0
O1       0.801993766892314d0     0.249987153755059d0     0.238669098461250d0
Ti1      0.000123603383822d0     0.999897385958536d0     0.238512187198856d0
Ti1      0.500142521004230d0     0.750038178055688d0     0.238522014307695d0
O1       0.000095322930372d0     0.500084774873452d0     0.317452257936818d0
O1       0.500112315057126d0     0.500084209992886d0     0.290342007718641d0
O1       0.698270105622955d0     0.750236102495782d0     0.369213011426276d0
O1       0.301995368073695d0     0.749987007385122d0     0.369214717028816d0
Ti1      0.500001644927041d0     0.985370751416071d0     0.364779031055315d0
Ti1      0.000183276761494d0     0.748948988039575d0     0.368476322807288d0
O1       0.500754066585669d0     0.498001325449654d0     0.450965836282258d0
O1       0.001460782485842d0     0.499964783615161d0     0.422656139091726d0
O1       0.199830824936779d0     0.748713002607463d0     0.501971499616525d0
O1       0.806781408897142d0     0.748150283048562d0     0.501776906868137d0
Ti1      0.993684535876480d0     0.992797299725254d0     0.498758904494600d0
Ti1      0.489672341091591d0     0.748040634692431d0     0.497162284719388d0
O1       0.999444547911902d0     0.495405013123047d0     0.582411909240064d0
O1       0.504734853314418d0     0.497976984745345d0     0.552477454475220d0
O1       0.692264797275587d0     0.745242543925825d0     0.639633422862210d0
O1       0.310542060257461d0     0.743476803680445d0     0.638299816757338d0
Ti1      0.495131487437754d0     0.994187966140036d0     0.628356791662384d0
Ti1      0.997235320284045d0     0.779807341958855d0     0.638916075483687d0
O1       0.500093721748991d0     0.500084921243389d0     0.186906639369252d0
O1       0.198268504441574d0     0.750236248865719d0     0.238667392858710d0
O1       0.801993766892315d0     0.749987153755059d0     0.238669098461250d0
N1       0.037931397740934d0     0.446883710873575d0     0.740619824928659d0
N1       0.011952719480162d0     0.483683029721132d0     0.693204347966259d0
C1       0.039932313704228d0     0.641353377648109d0     0.778201178475775d0
H1       0.938665370849809d0     0.775521612820004d0     0.765004590565692d0
H1       0.999411147316481d0     0.578325985575551d0     0.816980180545431d0
H1       0.195500902250934d0     0.705750101014094d0     0.779164450954752d0
O1       0.482712917211234d0     0.006076857882370d0     0.724416028573207d0
H1       0.594228449278963d0     0.101919863027477d0     0.735564758750236d0
H1       0.357411419500897d0     0.085839064984708d0     0.732666656809970d0
K_POINTS automatic
4 4 1  0 0 0 
