&CONTROL
  calculation='relax',
  prefix='calc',
  pseudo_dir='/storage/coda1/p-amedford6/0/shared/rich_project_chbe-medford/medford-share/data/pseudos_module/espresso/nninc/pbe/van',
  outdir='.',
  tefield=.true.,
  dipfield=.true.,
  tprnfor=.true.,
  disk_io='none',
/
&SYSTEM
  ibrav=0,
  celldm(1)=1.8897261245650618d0,
  nat=58,
  ntyp=5,
  ecutwfc=29.39945797996531d00,
  ecutrho=293.9945797996531d00,
  nbnd=212,
  occupations='smearing',
  smearing='fd',
  degauss=0.007349864494991328d00,
  input_dft='BEEF-vdW',
  edir=3,
  emaxpos=0.0032047149194220914d00,
  eopreg=0.025d00,
  eamp=0.0d00,
  nosym=.false.,
  noinv=.false.,
  nosym_evc=.false.,
  no_t_rev=.false.,
/
&ELECTRONS
  diagonalization='david',
  conv_thr=7.349864494991327e-08,
  mixing_beta=0.05d00,
  electron_maxstep=1000,
  startingpot='file',
  startingwfc='atomic',
/
&IONS
  ion_dynamics='ipi',
/
&CELL
  cell_dynamics='ipi',
/
CELL_PARAMETERS alat
    6.579727202290808d0     0.000000000000000d0     0.000000000000000d0
   -0.000775132442404d0     5.961596420607155d0     0.000000000000000d0
    0.000000000000000d0    -0.000000000000000d0    25.155947251439940d0
ATOMIC_SPECIES
Ti1 47.867d00 Ti.UPF
O1 15.999d00 O.UPF
N1 14.007d00 N.UPF
C1 12.011d00 C.UPF
H1 1.008d00 H.UPF
ATOMIC_POSITIONS {crystal}
Ti1      0.000123603383822d0     0.499897385958536d0     0.238512187198856d0
Ti1      0.500142521004230d0     0.250038178055688d0     0.238522014307695d0
O1       0.000095322930372d0     0.000084774873452d0     0.317452257936818d0
O1       0.500112315057126d0     0.000084209992886d0     0.290342007718641d0
O1       0.698270105622955d0     0.250236102495782d0     0.369213011426276d0
O1       0.301995368073695d0     0.249987007385122d0     0.369214717028816d0
Ti1      0.500198167309398d0     0.485761668506182d0     0.364758343030283d0
Ti1      0.000261424674789d0     0.248709163236136d0     0.368424970923767d0
O1       0.501589066962628d0     0.008286153073300d0     0.451684330347620d0
O1       0.001882992193933d0     0.999479849154423d0     0.422099495650131d0
O1       0.195538486770115d0     0.254775819813813d0     0.504688158530068d0
O1       0.808172807803448d0     0.254680487048442d0     0.504682006563802d0
Ti1      0.002041629576262d0     0.496027366615094d0     0.497624938767411d0
Ti1      0.503461932045216d0     0.268178794337851d0     0.495259185726988d0
O1       0.007040610285211d0     0.981913882880774d0     0.582427011331808d0
O1       0.503712793006108d0     0.989659431132909d0     0.556673854511047d0
O1       0.696475519811269d0     0.264817127232706d0     0.637914587649185d0
O1       0.310925511331484d0     0.257586502626282d0     0.638625717626474d0
Ti1      0.499407304509893d0     0.502357092648378d0     0.624294807535388d0
Ti1      0.011120451031901d0     0.221324559860969d0     0.626101673452126d0
O1       0.500093721748991d0     0.000084921243389d0     0.186906639369252d0
O1       0.997664118152588d0     0.029966602672417d0     0.681992839612778d0
O1       0.198268504441574d0     0.250236248865719d0     0.238667392858710d0
O1       0.801993766892314d0     0.249987153755059d0     0.238669098461250d0
Ti1      0.000123603383822d0     0.999897385958536d0     0.238512187198856d0
Ti1      0.500142521004230d0     0.750038178055688d0     0.238522014307695d0
O1       0.000095322930372d0     0.500084774873452d0     0.317452257936818d0
O1       0.500112315057126d0     0.500084209992886d0     0.290342007718641d0
O1       0.698270105622955d0     0.750236102495782d0     0.369213011426276d0
O1       0.301995368073695d0     0.749987007385122d0     0.369214717028816d0
Ti1      0.500001644927041d0     0.985370751416071d0     0.364779031055315d0
Ti1      0.000183276761494d0     0.748948988039575d0     0.368476322807288d0
O1       0.502269600063190d0     0.497299471433003d0     0.450101810518251d0
O1       0.001460782485842d0     0.499964783615161d0     0.422656139091726d0
O1       0.195981925523057d0     0.751688025740663d0     0.502362215345114d0
O1       0.808609074135159d0     0.752308797687113d0     0.502679999527034d0
Ti1      0.004286860806114d0     0.992476199586850d0     0.497029576367626d0
Ti1      0.503522270095558d0     0.785485044433986d0     0.505333685833519d0
O1       0.001043256358659d0     0.513382027502175d0     0.592873908616455d0
O1       0.500410547462702d0     0.506423972240082d0     0.553893981081387d0
O1       0.689220468318272d0     0.746192343513875d0     0.644872663370176d0
O1       0.304897661778331d0     0.743502278704075d0     0.645068464611811d0
Ti1      0.516179012819131d0     0.008575624059748d0     0.648244420108776d0
Ti1      0.015462807430604d0     0.759756359183359d0     0.638444790340819d0
O1       0.500093721748991d0     0.500084921243389d0     0.186906639369252d0
O1       0.198268504441574d0     0.750236248865719d0     0.238667392858710d0
O1       0.801993766892315d0     0.749987153755059d0     0.238669098461250d0
N1       0.118596328007130d0     0.527714942525516d0     0.758501087568947d0
N1       0.957994555374854d0     0.555927035082527d0     0.719298079673055d0
C1       0.149482978000816d0     0.734897091759155d0     0.788667864423820d0
H1       0.009205803555196d0     0.798958512270849d0     0.806946785294814d0
H1       0.259776708213266d0     0.699958771790638d0     0.819502790469592d0
H1       0.209511752643275d0     0.864035860238128d0     0.762227135450284d0
H1       0.073694568968963d0     0.403540838336343d0     0.783675429523386d0
H1       0.842837732115844d0     0.652919415757860d0     0.734466398316936d0
H1       0.893576769455294d0     0.401424554342781d0     0.714084850703833d0
O1       0.515153666147649d0     0.032147580897488d0     0.722293236313233d0
H1       0.579587028375236d0     0.911524028925188d0     0.741699594946630d0
K_POINTS automatic
4 4 1  0 0 0 
