&CONTROL
  calculation='relax',
  prefix='calc',
  pseudo_dir='/storage/coda1/p-amedford6/0/shared/rich_project_chbe-medford/medford-share/data/pseudos_module/espresso/nninc/pbe/van',
  outdir='.',
  tefield=.true.,
  dipfield=.true.,
  tprnfor=.true.,
  disk_io='none',
/
&SYSTEM
  ibrav=0,
  celldm(1)=1.8897261245650618d0,
  nat=55,
  ntyp=5,
  ecutwfc=29.39945797996531d00,
  ecutrho=293.9945797996531d00,
  nbnd=211,
  occupations='smearing',
  smearing='fd',
  degauss=0.007349864494991328d00,
  input_dft='BEEF-vdW',
  edir=3,
  emaxpos=0.0011909053347469722d00,
  eopreg=0.025d00,
  eamp=0.0d00,
  nosym=.false.,
  noinv=.false.,
  nosym_evc=.false.,
  no_t_rev=.false.,
/
&ELECTRONS
  diagonalization='david',
  conv_thr=7.349864494991327e-08,
  mixing_beta=0.05d00,
  electron_maxstep=1000,
  startingpot='file',
  startingwfc='atomic',
/
&IONS
  ion_dynamics='ipi',
/
&CELL
  cell_dynamics='ipi',
/
CELL_PARAMETERS alat
    6.579727202290808d0     0.000000000000000d0     0.000000000000000d0
   -0.000775132442404d0     5.961596420607155d0     0.000000000000000d0
    0.000000000000000d0    -0.000000000000000d0    25.155947251439940d0
ATOMIC_SPECIES
Ti1 47.867d00 Ti.UPF
O1 15.999d00 O.UPF
N1 14.007d00 N.UPF
C1 12.011d00 C.UPF
H1 1.008d00 H.UPF
ATOMIC_POSITIONS {crystal}
Ti1      0.000123603383822d0     0.499897385958536d0     0.238512187198856d0
Ti1      0.500142521004230d0     0.250038178055688d0     0.238522014307695d0
O1       0.000095322930372d0     0.000084774873452d0     0.317452257936818d0
O1       0.500112315057126d0     0.000084209992886d0     0.290342007718641d0
O1       0.698270105622955d0     0.250236102495782d0     0.369213011426276d0
O1       0.301995368073695d0     0.249987007385122d0     0.369214717028816d0
Ti1      0.500198167309398d0     0.485761668506182d0     0.364758343030283d0
Ti1      0.000261424674789d0     0.248709163236136d0     0.368424970923767d0
O1       0.502791198887009d0     0.995478903485143d0     0.449053306703720d0
O1       0.001882992193933d0     0.999479849154423d0     0.422099495650131d0
O1       0.198444470387879d0     0.248579249791806d0     0.501958429330997d0
O1       0.807946664491357d0     0.248324870306983d0     0.501613055908720d0
Ti1      0.002883472629687d0     0.476787661592972d0     0.502722913936402d0
Ti1      0.504113482450455d0     0.216789134138228d0     0.503535131277292d0
O1       0.000306385257915d0     0.995645902641393d0     0.581850760643389d0
O1       0.503485616290694d0     0.004622333854128d0     0.552625155065041d0
O1       0.695589181263671d0     0.254247916606483d0     0.639587873866631d0
O1       0.310414714367305d0     0.256943694302523d0     0.636870785468893d0
Ti1      0.502941902206405d0     0.500046022112912d0     0.622660179493920d0
Ti1      0.003628285321371d0     0.246386828287471d0     0.628611490416427d0
O1       0.500093721748991d0     0.000084921243389d0     0.186906639369252d0
O1       0.010391758909568d0     0.997983188367554d0     0.682681280716000d0
O1       0.198268504441574d0     0.250236248865719d0     0.238667392858710d0
O1       0.801993766892314d0     0.249987153755059d0     0.238669098461250d0
Ti1      0.000123603383822d0     0.999897385958536d0     0.238512187198856d0
Ti1      0.500142521004230d0     0.750038178055688d0     0.238522014307695d0
O1       0.000095322930372d0     0.500084774873452d0     0.317452257936818d0
O1       0.500112315057126d0     0.500084209992886d0     0.290342007718641d0
O1       0.698270105622955d0     0.750236102495782d0     0.369213011426276d0
O1       0.301995368073695d0     0.749987007385122d0     0.369214717028816d0
Ti1      0.500001644927041d0     0.985370751416071d0     0.364779031055315d0
Ti1      0.000183276761494d0     0.748948988039575d0     0.368476322807288d0
O1       0.502238215486665d0     0.506078577388237d0     0.447730134433982d0
O1       0.001460782485842d0     0.499964783615161d0     0.422656139091726d0
O1       0.199157396914285d0     0.748146846118763d0     0.502027462014116d0
O1       0.807710085618587d0     0.748828212040215d0     0.501709450456784d0
Ti1      0.004473611652692d0     0.976283911460233d0     0.499610501308337d0
Ti1      0.504581551039002d0     0.736034414650225d0     0.493849519402584d0
O1       0.999545623580633d0     0.493185684184049d0     0.583377079873473d0
O1       0.506588345795044d0     0.499240293772514d0     0.551793739275852d0
O1       0.694015866704135d0     0.744442247080703d0     0.641328669485499d0
O1       0.309520404724372d0     0.738583459810632d0     0.637713733419772d0
Ti1      0.505548222203447d0     0.999379018677726d0     0.648653875613452d0
Ti1      0.005785639131184d0     0.775468158076914d0     0.637253715184470d0
O1       0.500093721748991d0     0.500084921243389d0     0.186906639369252d0
O1       0.198268504441574d0     0.750236248865719d0     0.238667392858710d0
O1       0.801993766892315d0     0.749987153755059d0     0.238669098461250d0
N1       0.018989561128023d0     0.447233885228690d0     0.742065380971940d0
N1       0.007292191187589d0     0.481309640352569d0     0.695007914698616d0
C1       0.019770967941170d0     0.636175556704179d0     0.780752208288441d0
H1       0.957813527226428d0     0.789481775277232d0     0.763710592609889d0
H1       0.935140472192932d0     0.580819747045489d0     0.815475171300242d0
H1       0.178409637738460d0     0.660409785527938d0     0.792207841821310d0
O1       0.470865599345757d0     0.001639712777143d0     0.720713296309446d0
H1       0.333948770915124d0     0.038472386985922d0     0.732669475910208d0
K_POINTS automatic
4 4 1  0 0 0 
