&CONTROL
  calculation='relax',
  prefix='calc',
  pseudo_dir='/storage/coda1/p-amedford6/0/shared/rich_project_chbe-medford/medford-share/data/pseudos_module/espresso/nninc/pbe/van',
  outdir='.',
  tefield=.true.,
  dipfield=.true.,
  tprnfor=.true.,
  disk_io='none',
/
&SYSTEM
  ibrav=0,
  celldm(1)=1.8897261245650618d0,
  nat=50,
  ntyp=5,
  ecutwfc=29.39945797996531d00,
  ecutrho=293.9945797996531d00,
  nbnd=204,
  occupations='smearing',
  smearing='fd',
  degauss=0.007349864494991328d00,
  input_dft='BEEF-vdW',
  edir=3,
  emaxpos=0.982120668099995d00,
  eopreg=0.025d00,
  eamp=0.0d00,
  nosym=.false.,
  noinv=.false.,
  nosym_evc=.false.,
  no_t_rev=.false.,
/
&ELECTRONS
  diagonalization='david',
  conv_thr=7.349864494991327e-08,
  mixing_beta=0.05d00,
  electron_maxstep=1000,
  startingpot='file',
  startingwfc='atomic',
/
&IONS
  ion_dynamics='ipi',
/
&CELL
  cell_dynamics='ipi',
/
CELL_PARAMETERS alat
    6.579727202290808d0     0.000000000000000d0     0.000000000000000d0
   -0.000775132442404d0     5.961596420607155d0     0.000000000000000d0
    0.000000000000000d0    -0.000000000000000d0    25.155947251439940d0
ATOMIC_SPECIES
Ti1 47.867d00 Ti.UPF
O1 15.999d00 O.UPF
N1 14.007d00 N.UPF
C1 12.011d00 C.UPF
H1 1.008d00 H.UPF
ATOMIC_POSITIONS {crystal}
Ti1      0.000123603383822d0     0.499897385958536d0     0.238512187198856d0
Ti1      0.500142521004230d0     0.250038178055688d0     0.238522014307695d0
O1       0.000095322930372d0     0.000084774873452d0     0.317452257936818d0
O1       0.500112315057126d0     0.000084209992886d0     0.290342007718641d0
O1       0.698270105622955d0     0.250236102495782d0     0.369213011426276d0
O1       0.301995368073695d0     0.249987007385122d0     0.369214717028816d0
Ti1      0.500198167309398d0     0.485761668506182d0     0.364758343030283d0
Ti1      0.000261424674789d0     0.248709163236136d0     0.368424970923767d0
O1       0.501754335038297d0     0.001913399033715d0     0.452129774182240d0
O1       0.001882992193933d0     0.999479849154423d0     0.422099495650131d0
O1       0.197789102055875d0     0.251517266285822d0     0.504063505998754d0
O1       0.806187633242509d0     0.251295475451944d0     0.504011815087040d0
Ti1      0.003434596136428d0     0.501201827860377d0     0.497766166118651d0
Ti1      0.504093246269754d0     0.251106301362733d0     0.498055812032325d0
O1       0.002110029606110d0     0.991593647720032d0     0.583510820537530d0
O1       0.502450358933586d0     0.999497321834020d0     0.556205235172071d0
O1       0.692662843408476d0     0.254389827460053d0     0.641611544215367d0
O1       0.310524892610644d0     0.254633380176134d0     0.641324055872265d0
Ti1      0.502534052214930d0     0.503976402226366d0     0.626400000576947d0
Ti1      0.002914713397856d0     0.228627951827950d0     0.628801541684969d0
O1       0.500093721748991d0     0.000084921243389d0     0.186906639369252d0
O1       0.001826379991772d0     0.018851970924467d0     0.684476206692503d0
O1       0.198268504441574d0     0.250236248865719d0     0.238667392858710d0
O1       0.801993766892314d0     0.249987153755059d0     0.238669098461250d0
Ti1      0.000123603383822d0     0.999897385958536d0     0.238512187198856d0
Ti1      0.500142521004230d0     0.750038178055688d0     0.238522014307695d0
O1       0.000095322930372d0     0.500084774873452d0     0.317452257936818d0
O1       0.500112315057126d0     0.500084209992886d0     0.290342007718641d0
O1       0.698270105622955d0     0.750236102495782d0     0.369213011426276d0
O1       0.301995368073695d0     0.749987007385122d0     0.369214717028816d0
Ti1      0.500001644927041d0     0.985370751416071d0     0.364779031055315d0
Ti1      0.000183276761494d0     0.748948988039575d0     0.368476322807288d0
O1       0.501827459418127d0     0.499863683345979d0     0.451951942840076d0
O1       0.001460782485842d0     0.499964783615161d0     0.422656139091726d0
O1       0.198042672184668d0     0.749825955401899d0     0.502836446542933d0
O1       0.806047802477172d0     0.749979463196112d0     0.502757606115010d0
Ti1      0.003358278940636d0     0.999417477275685d0     0.496939431687444d0
Ti1      0.504147164799913d0     0.750743884689966d0     0.497762548039383d0
O1       0.001008918053776d0     0.507588407692865d0     0.593877862736454d0
O1       0.502640884098197d0     0.503818209539700d0     0.555163997871601d0
O1       0.692106125610384d0     0.751227178700214d0     0.644233425591564d0
O1       0.310942673742569d0     0.750775905686312d0     0.643953607145081d0
Ti1      0.502580354593489d0     0.003201149087285d0     0.627712624034705d0
Ti1      0.002727298474732d0     0.770708508086932d0     0.639139847910787d0
O1       0.500093721748991d0     0.500084921243389d0     0.186906639369252d0
O1       0.198268504441574d0     0.750236248865719d0     0.238667392858710d0
O1       0.801993766892315d0     0.749987153755059d0     0.238669098461250d0
N1       0.000827048992214d0     0.540912083684326d0     0.714160959246542d0
C1       0.999316567822361d0     0.410273244221698d0     0.747876119654670d0
H1       0.997405628244453d0     0.284003557978007d0     0.777334696830737d0
K_POINTS automatic
4 4 1  0 0 0 
