&CONTROL
  calculation='relax',
  prefix='calc',
  pseudo_dir='/storage/coda1/p-amedford6/0/shared/rich_project_chbe-medford/medford-share/data/pseudos_module/espresso/nninc/pbe/van',
  outdir='.',
  tefield=.true.,
  dipfield=.true.,
  tprnfor=.true.,
  disk_io='none',
/
&SYSTEM
  ibrav=0,
  celldm(1)=1.8897261245650618d0,
  nat=57,
  ntyp=5,
  ecutwfc=29.39945797996531d00,
  ecutrho=293.9945797996531d00,
  nbnd=212,
  occupations='smearing',
  smearing='fd',
  degauss=0.007349864494991328d00,
  input_dft='BEEF-vdW',
  edir=3,
  emaxpos=0.9800179167788265d00,
  eopreg=0.025d00,
  eamp=0.0d00,
  nosym=.false.,
  noinv=.false.,
  nosym_evc=.false.,
  no_t_rev=.false.,
/
&ELECTRONS
  diagonalization='david',
  conv_thr=7.349864494991327e-08,
  mixing_beta=0.05d00,
  electron_maxstep=1000,
  startingpot='file',
  startingwfc='atomic',
/
&IONS
  ion_dynamics='ipi',
/
&CELL
  cell_dynamics='ipi',
/
CELL_PARAMETERS alat
    6.579727202290808d0     0.000000000000000d0     0.000000000000000d0
   -0.000775132442404d0     5.961596420607155d0     0.000000000000000d0
    0.000000000000000d0    -0.000000000000000d0    25.155947251439940d0
ATOMIC_SPECIES
Ti1 47.867d00 Ti.UPF
O1 15.999d00 O.UPF
N1 14.007d00 N.UPF
C1 12.011d00 C.UPF
H1 1.008d00 H.UPF
ATOMIC_POSITIONS {crystal}
Ti1      0.000123603383822d0     0.499897385958536d0     0.238512187198856d0
Ti1      0.500142521004230d0     0.250038178055688d0     0.238522014307695d0
O1       0.000095322930372d0     0.000084774873452d0     0.317452257936818d0
O1       0.500112315057126d0     0.000084209992886d0     0.290342007718641d0
O1       0.698270105622955d0     0.250236102495782d0     0.369213011426276d0
O1       0.301995368073695d0     0.249987007385122d0     0.369214717028816d0
Ti1      0.500198167309398d0     0.485761668506182d0     0.364758343030283d0
Ti1      0.000261424674789d0     0.248709163236136d0     0.368424970923767d0
O1       0.498162310166748d0     0.996787758280770d0     0.452694980666873d0
O1       0.001882992193933d0     0.999479849154423d0     0.422099495650131d0
O1       0.190908002655191d0     0.248410566590827d0     0.504510100379423d0
O1       0.804233563836224d0     0.249744419991900d0     0.504154907663950d0
Ti1      0.998474777413003d0     0.495669448964865d0     0.497184742714321d0
Ti1      0.497319379361855d0     0.216823516168885d0     0.506337142622352d0
O1       0.992001782701943d0     0.990933899260996d0     0.583393782912628d0
O1       0.497744706463857d0     0.012151534027654d0     0.558667281350445d0
O1       0.690095422715432d0     0.270818838784454d0     0.640860376609918d0
O1       0.298111154350978d0     0.263047200192383d0     0.641483441820443d0
Ti1      0.495763976705321d0     0.508184814058864d0     0.624958888073363d0
Ti1      0.986555303158467d0     0.222924758302076d0     0.630072655759342d0
O1       0.500093721748991d0     0.000084921243389d0     0.186906639369252d0
O1       0.990163655178837d0     0.026952034978820d0     0.686221211294665d0
O1       0.198268504441574d0     0.250236248865719d0     0.238667392858710d0
O1       0.801993766892314d0     0.249987153755059d0     0.238669098461250d0
Ti1      0.000123603383822d0     0.999897385958536d0     0.238512187198856d0
Ti1      0.500142521004230d0     0.750038178055688d0     0.238522014307695d0
O1       0.000095322930372d0     0.500084774873452d0     0.317452257936818d0
O1       0.500112315057126d0     0.500084209992886d0     0.290342007718641d0
O1       0.698270105622955d0     0.750236102495782d0     0.369213011426276d0
O1       0.301995368073695d0     0.749987007385122d0     0.369214717028816d0
Ti1      0.500001644927041d0     0.985370751416071d0     0.364779031055315d0
Ti1      0.000183276761494d0     0.748948988039575d0     0.368476322807288d0
O1       0.497790566826690d0     0.501073252556134d0     0.450537922032882d0
O1       0.001460782485842d0     0.499964783615161d0     0.422656139091726d0
O1       0.191550048392915d0     0.747909469137409d0     0.503396759159079d0
O1       0.803559906619953d0     0.746632739741554d0     0.502838886305131d0
Ti1      0.997188940353995d0     0.994569509018843d0     0.496653690710834d0
Ti1      0.497443016513376d0     0.731728713272011d0     0.494961017359842d0
O1       0.999151628814720d0     0.507558921902089d0     0.592405102120429d0
O1       0.495416318723631d0     0.504282264897422d0     0.554309733050548d0
O1       0.690714219779746d0     0.743266637087596d0     0.642748403788894d0
O1       0.298820804999866d0     0.750843339995295d0     0.644263311460330d0
Ti1      0.482945613488478d0     0.009453122305973d0     0.646232241079568d0
Ti1      0.991266535616542d0     0.758630763714310d0     0.633806129530868d0
O1       0.500093721748991d0     0.500084921243389d0     0.186906639369252d0
O1       0.198268504441574d0     0.750236248865719d0     0.238667392858710d0
O1       0.801993766892315d0     0.749987153755059d0     0.238669098461250d0
N1       0.124032363412371d0     0.424333295094407d0     0.745882869388572d0
N1       0.977350092174690d0     0.563272472188555d0     0.720840921655984d0
C1       0.297179280331836d0     0.507103586191855d0     0.764406807244835d0
H1       0.317742177757894d0     0.685931799636650d0     0.768226559798681d0
H1       0.414039362067058d0     0.386675788994394d0     0.773129194188401d0
H1       0.113867874413688d0     0.260263520031106d0     0.733494866535704d0
H1       0.980900841143827d0     0.718422950019721d0     0.738181576994819d0
H1       0.837007620442996d0     0.495115304705099d0     0.726812578341261d0
O1       0.516245168126669d0     0.015243832700892d0     0.721472796306646d0
H1       0.660423359210748d0     0.025386203926355d0     0.729612201364469d0
K_POINTS automatic
4 4 1  0 0 0 
