&CONTROL
  calculation='relax',
  prefix='calc',
  pseudo_dir='/storage/coda1/p-amedford6/0/shared/rich_project_chbe-medford/medford-share/data/pseudos_module/espresso/nninc/pbe/van',
  outdir='.',
  tefield=.true.,
  dipfield=.true.,
  tprnfor=.true.,
  disk_io='none',
/
&SYSTEM
  ibrav=0,
  celldm(1)=1.8897261245650618d0,
  nat=55,
  ntyp=5,
  ecutwfc=29.39945797996531d00,
  ecutrho=293.9945797996531d00,
  nbnd=211,
  occupations='smearing',
  smearing='fd',
  degauss=0.007349864494991328d00,
  input_dft='BEEF-vdW',
  edir=3,
  emaxpos=0.010618042444730635d00,
  eopreg=0.025d00,
  eamp=0.0d00,
  nosym=.false.,
  noinv=.false.,
  nosym_evc=.false.,
  no_t_rev=.false.,
/
&ELECTRONS
  diagonalization='david',
  conv_thr=7.349864494991327e-08,
  mixing_beta=0.05d00,
  electron_maxstep=1000,
  startingwfc='atomic',
/
&IONS
  ion_dynamics='ipi',
/
&CELL
  cell_dynamics='ipi',
/
CELL_PARAMETERS alat
    6.579727202290808d0     0.000000000000000d0     0.000000000000000d0
   -0.000775132442404d0     5.961596420607155d0     0.000000000000000d0
    0.000000000000000d0    -0.000000000000000d0    25.155947251439940d0
ATOMIC_SPECIES
Ti1 47.867d00 Ti.UPF
O1 15.999d00 O.UPF
N1 14.007d00 N.UPF
C1 12.011d00 C.UPF
H1 1.008d00 H.UPF
ATOMIC_POSITIONS {crystal}
Ti1      0.000123603383822d0     0.499897385958536d0     0.238512187198856d0
Ti1      0.500142521004230d0     0.250038178055688d0     0.238522014307695d0
O1       0.000095322930372d0     0.000084774873452d0     0.317452257936818d0
O1       0.500112315057126d0     0.000084209992886d0     0.290342007718641d0
O1       0.698270105622955d0     0.250236102495782d0     0.369213011426276d0
O1       0.301995368073695d0     0.249987007385122d0     0.369214717028816d0
Ti1      0.500198167309398d0     0.485761668506182d0     0.364758343030283d0
Ti1      0.000261424674789d0     0.248709163236136d0     0.368424970923767d0
O1       0.499892927729812d0     0.993223000371186d0     0.450328210425091d0
O1       0.001882992193933d0     0.999479849154423d0     0.422099495650131d0
O1       0.196727628325078d0     0.247132643411695d0     0.502197072234824d0
O1       0.805043090541392d0     0.246709042750551d0     0.502311455170421d0
Ti1      0.004174147576124d0     0.473319059515934d0     0.503190601491781d0
Ti1      0.501156363644954d0     0.214181565002292d0     0.505319480987284d0
O1       0.998509507938766d0     0.006624202663461d0     0.581323559289979d0
O1       0.498773517136186d0     0.010868440079310d0     0.555136940230856d0
O1       0.693390349819426d0     0.253471248047291d0     0.642631367918529d0
O1       0.311440532724419d0     0.249971872998139d0     0.644050957402625d0
Ti1      0.500418147280862d0     0.506773562620588d0     0.623674504162074d0
Ti1      0.986830295400348d0     0.236949543362454d0     0.636369706079014d0
O1       0.500093721748991d0     0.000084921243389d0     0.186906639369252d0
O1       0.998550861396731d0     0.965984723577101d0     0.681085646911703d0
O1       0.198268504441574d0     0.250236248865719d0     0.238667392858710d0
O1       0.801993766892314d0     0.249987153755059d0     0.238669098461250d0
Ti1      0.000123603383822d0     0.999897385958536d0     0.238512187198856d0
Ti1      0.500142521004230d0     0.750038178055688d0     0.238522014307695d0
O1       0.000095322930372d0     0.500084774873452d0     0.317452257936818d0
O1       0.500112315057126d0     0.500084209992886d0     0.290342007718641d0
O1       0.698270105622955d0     0.750236102495782d0     0.369213011426276d0
O1       0.301995368073695d0     0.749987007385122d0     0.369214717028816d0
Ti1      0.500001644927041d0     0.985370751416071d0     0.364779031055315d0
Ti1      0.000183276761494d0     0.748948988039575d0     0.368476322807288d0
O1       0.499424356955374d0     0.507940898577520d0     0.448607035698611d0
O1       0.001460782485842d0     0.499964783615161d0     0.422656139091726d0
O1       0.193468460042603d0     0.745621612138389d0     0.504116612882871d0
O1       0.803946280872039d0     0.745611496933416d0     0.504142796712347d0
Ti1      0.995134755433143d0     0.975574402458422d0     0.497931729554846d0
Ti1      0.497062754526622d0     0.733230656283634d0     0.494672374068210d0
O1       0.004765979920322d0     0.479389348580036d0     0.587016365753603d0
O1       0.498854564905691d0     0.494482861807717d0     0.552847008720652d0
O1       0.691869142288849d0     0.735163337773030d0     0.636630075062260d0
O1       0.307653221941482d0     0.737483615432230d0     0.638285638722327d0
Ti1      0.488186825878763d0     0.001050859602087d0     0.651718906564093d0
Ti1      0.993358317191227d0     0.773264349560928d0     0.628283335147975d0
O1       0.500093721748991d0     0.500084921243389d0     0.186906639369252d0
O1       0.198268504441574d0     0.750236248865719d0     0.238667392858710d0
O1       0.801993766892315d0     0.749987153755059d0     0.238669098461250d0
N1       0.043885563733651d0     0.311906697202956d0     0.753260471985000d0
N1       0.999271767474726d0     0.398567828155528d0     0.712177829105676d0
C1       0.011685362450693d0     0.425381412037882d0     0.805532276256814d0
H1       0.886316535029843d0     0.543289497527484d0     0.803411235078240d0
H1       0.982959304025745d0     0.292525016346689d0     0.834329445520209d0
H1       0.153304792999412d0     0.509646203473917d0     0.815691533289775d0
O1       0.508096902054887d0     0.970813018004079d0     0.722949278192952d0
H1       0.477145572962378d0     0.040141266985621d0     0.756534856254894d0
K_POINTS automatic
4 4 1  0 0 0 
