&CONTROL
  calculation='relax',
  prefix='calc',
  pseudo_dir='/storage/coda1/p-amedford6/0/shared/rich_project_chbe-medford/medford-share/data/pseudos_module/espresso/nninc/pbe/van',
  outdir='.',
  tefield=.true.,
  dipfield=.true.,
  tprnfor=.true.,
  disk_io='none',
/
&SYSTEM
  ibrav=0,
  celldm(1)=1.8897261245650618d0,
  nat=49,
  ntyp=3,
  ecutwfc=29.39945797996531d00,
  ecutrho=293.9945797996531d00,
  nbnd=204,
  occupations='smearing',
  smearing='fd',
  degauss=0.007349864494991328d00,
  input_dft='BEEF-vdW',
  edir=3,
  emaxpos=0.9824904768504423d00,
  eopreg=0.025d00,
  eamp=0.0d00,
  nosym=.false.,
  noinv=.false.,
  nosym_evc=.false.,
  no_t_rev=.false.,
/
&ELECTRONS
  diagonalization='david',
  conv_thr=7.349864494991327e-08,
  mixing_beta=0.05d00,
  electron_maxstep=1000,
  startingwfc='atomic',
/
&IONS
  ion_dynamics='ipi',
/
&CELL
  cell_dynamics='ipi',
/
CELL_PARAMETERS alat
    6.579727202290808d0     0.000000000000000d0     0.000000000000000d0
   -0.000775132442404d0     5.961596420607155d0     0.000000000000000d0
    0.000000000000000d0    -0.000000000000000d0    25.155947251439937d0
ATOMIC_SPECIES
Ti1 47.867d00 Ti.UPF
O1 15.999d00 O.UPF
N1 14.007d00 N.UPF
ATOMIC_POSITIONS {crystal}
Ti1      0.000123603383822d0     0.499897385958537d0     0.238512187198856d0
Ti1      0.500142521004230d0     0.250038178055688d0     0.238522014307695d0
O1       0.000095322930372d0     0.000084774873452d0     0.317452257936818d0
O1       0.500112315057126d0     0.000084209992886d0     0.290342007718641d0
O1       0.698270105622955d0     0.250236102495782d0     0.369213011426276d0
O1       0.301995368073694d0     0.249987007385122d0     0.369214717028816d0
Ti1      0.500115986401905d0     0.499398179968893d0     0.364165807145386d0
Ti1      0.000184382941413d0     0.249695945279198d0     0.368205417485855d0
O1       0.499752387096993d0     0.997697507389890d0     0.452578808468857d0
O1       0.000021204798105d0     0.999121325273001d0     0.421981279534796d0
O1       0.195613352443744d0     0.248832707037967d0     0.503581348185404d0
O1       0.804138992961626d0     0.248869455607881d0     0.503481300880450d0
Ti1      0.999981731311282d0     0.497148620425034d0     0.497331286838409d0
Ti1      0.499638523084768d0     0.248731263816029d0     0.498207905498398d0
O1       0.999792927496701d0     0.999769360838912d0     0.583539852293499d0
O1       0.500315255065640d0     0.997787206209845d0     0.557271247131499d0
O1       0.692650461553457d0     0.250089034296208d0     0.643812746864984d0
O1       0.307684525396627d0     0.249882447262195d0     0.643726037575540d0
Ti1      0.500224661352069d0     0.496715106713895d0     0.627220250971010d0
Ti1      0.000314031065985d0     0.226409103081386d0     0.633767394032932d0
O1       0.500093721748991d0     0.000084921243389d0     0.186906639369252d0
O1       0.999985083724429d0     0.997481947548948d0     0.684385748162386d0
O1       0.198268504441573d0     0.250236248865719d0     0.238667392858710d0
O1       0.801993766892314d0     0.249987153755059d0     0.238669098461250d0
Ti1      0.000123603383822d0     0.999897385958537d0     0.238512187198856d0
Ti1      0.500142521004230d0     0.750038178055688d0     0.238522014307695d0
O1       0.000095322930372d0     0.500084774873452d0     0.317452257936818d0
O1       0.500112315057126d0     0.500084209992886d0     0.290342007718641d0
O1       0.698270105622955d0     0.750236102495782d0     0.369213011426276d0
O1       0.301995368073694d0     0.749987007385122d0     0.369214717028816d0
Ti1      0.500143748332974d0     0.999245704190373d0     0.364092073423748d0
Ti1      0.000179461037792d0     0.749771471833507d0     0.368196471915227d0
O1       0.499764522119312d0     0.498800619195398d0     0.452342731002991d0
O1       0.000182647940414d0     0.499586347693788d0     0.422668365614285d0
O1       0.195651422639761d0     0.747325305138139d0     0.504016786086337d0
O1       0.804110692104383d0     0.747233884330712d0     0.503921879509977d0
Ti1      0.999391539083268d0     0.997145787707783d0     0.496441355252686d0
Ti1      0.499621965468446d0     0.748244073742783d0     0.498526032512588d0
O1       0.999750812592188d0     0.497915325488861d0     0.595060511836255d0
O1       0.500083437702647d0     0.496373821209912d0     0.555845842946593d0
O1       0.692543989377996d0     0.744604008587782d0     0.643528396038057d0
O1       0.307604894604323d0     0.744775382501857d0     0.643320460266916d0
Ti1      0.500437228261681d0     0.996712491880958d0     0.628966014791326d0
Ti1      0.000244310055577d0     0.772201653510895d0     0.633705538832052d0
O1       0.500093721748991d0     0.500084921243389d0     0.186906639369252d0
O1       0.198268504441573d0     0.750236248865719d0     0.238667392858710d0
O1       0.801993766892314d0     0.749987153755059d0     0.238669098461250d0
N1       0.018591581938767d0     0.488689741852362d0     0.778074314331632d0
N1       0.009835034751081d0     0.492529155353792d0     0.733980700384984d0
K_POINTS automatic
4 4 1  0 0 0 
