&CONTROL
  calculation='relax',
  prefix='calc',
  pseudo_dir='/storage/coda1/p-amedford6/0/shared/rich_project_chbe-medford/medford-share/data/pseudos_module/espresso/nninc/pbe/van',
  outdir='.',
  tefield=.true.,
  dipfield=.true.,
  tprnfor=.true.,
  disk_io='none',
/
&SYSTEM
  ibrav=0,
  celldm(1)=1.8897261245650618d0,
  nat=49,
  ntyp=3,
  ecutwfc=29.39945797996531d00,
  ecutrho=293.9945797996531d00,
  nbnd=204,
  occupations='smearing',
  smearing='fd',
  degauss=0.007349864494991328d00,
  input_dft='BEEF-vdW',
  edir=3,
  emaxpos=0.9822442766104033d00,
  eopreg=0.025d00,
  eamp=0.0d00,
  nosym=.false.,
  noinv=.false.,
  nosym_evc=.false.,
  no_t_rev=.false.,
/
&ELECTRONS
  diagonalization='david',
  conv_thr=7.349864494991327e-08,
  mixing_beta=0.05d00,
  electron_maxstep=1000,
  startingpot='file',
  startingwfc='atomic',
/
&IONS
  ion_dynamics='ipi',
/
&CELL
  cell_dynamics='ipi',
/
CELL_PARAMETERS alat
    6.579727202290808d0     0.000000000000000d0     0.000000000000000d0
   -0.000775132442404d0     5.961596420607155d0     0.000000000000000d0
    0.000000000000000d0    -0.000000000000000d0    25.155947251439937d0
ATOMIC_SPECIES
Ti1 47.867d00 Ti.UPF
O1 15.999d00 O.UPF
N1 14.007d00 N.UPF
ATOMIC_POSITIONS {crystal}
Ti1      0.000123603383822d0     0.499897385958537d0     0.238512187198856d0
Ti1      0.500142521004230d0     0.250038178055688d0     0.238522014307695d0
O1       0.000095322930372d0     0.000084774873452d0     0.317452257936818d0
O1       0.500112315057126d0     0.000084209992886d0     0.290342007718641d0
O1       0.698270105622955d0     0.250236102495782d0     0.369213011426276d0
O1       0.301995368073694d0     0.249987007385122d0     0.369214717028816d0
Ti1      0.500201940046494d0     0.499376872104235d0     0.363961733993675d0
Ti1      0.000253208615994d0     0.249925622478267d0     0.368002908954881d0
O1       0.499863377714301d0     0.998324500568229d0     0.452954863647896d0
O1       0.000069489505027d0     0.999458956411698d0     0.421756851554718d0
O1       0.195369100717059d0     0.249021079487808d0     0.503667113934850d0
O1       0.804611362382858d0     0.248982366331127d0     0.503604180063699d0
Ti1      0.999917547475548d0     0.497628939413788d0     0.496923830372952d0
Ti1      0.499563781985025d0     0.248440175660876d0     0.498413697055560d0
O1       0.999922254024957d0     0.998984219427405d0     0.583881394547296d0
O1       0.500151274270363d0     0.997901443274954d0     0.557295480765530d0
O1       0.692320535881826d0     0.250109759228038d0     0.643606415424705d0
O1       0.308054499017915d0     0.250132000462104d0     0.643527900127944d0
Ti1      0.500397504771689d0     0.497058630788478d0     0.627222485355268d0
Ti1      0.000219745158115d0     0.225387490244712d0     0.633985716601268d0
O1       0.500093721748991d0     0.000084921243389d0     0.186906639369252d0
O1       0.000270564779048d0     0.996986146789553d0     0.684561734000394d0
O1       0.198268504441573d0     0.250236248865719d0     0.238667392858710d0
O1       0.801993766892314d0     0.249987153755059d0     0.238669098461250d0
Ti1      0.000123603383822d0     0.999897385958537d0     0.238512187198856d0
Ti1      0.500142521004230d0     0.750038178055688d0     0.238522014307695d0
O1       0.000095322930372d0     0.500084774873452d0     0.317452257936818d0
O1       0.500112315057126d0     0.500084209992886d0     0.290342007718641d0
O1       0.698270105622955d0     0.750236102495782d0     0.369213011426276d0
O1       0.301995368073694d0     0.749987007385122d0     0.369214717028816d0
Ti1      0.500199832429764d0     0.999343207712775d0     0.363902229323692d0
Ti1      0.000251107094976d0     0.749611942454431d0     0.368011919176429d0
O1       0.499857765289431d0     0.498552271536084d0     0.452698797005922d0
O1       0.000121929990465d0     0.499527774016272d0     0.422542751896872d0
O1       0.195333997214208d0     0.747674607688784d0     0.503767622014723d0
O1       0.804622619076918d0     0.747656690587539d0     0.503707146630066d0
Ti1      0.999498129092309d0     0.997672069662032d0     0.496037072528075d0
Ti1      0.499588457481409d0     0.748063846469064d0     0.498487660034807d0
O1       0.999925442117203d0     0.497633561963606d0     0.595845214585420d0
O1       0.500135645405022d0     0.497741391966586d0     0.555966651625945d0
O1       0.692275240068860d0     0.745250139685653d0     0.643427978482674d0
O1       0.308110183123533d0     0.745255024248674d0     0.643355892996525d0
Ti1      0.500146682145961d0     0.996978133522012d0     0.628859860925205d0
Ti1      0.000203955203840d0     0.771792083143125d0     0.633745644553811d0
O1       0.500093721748991d0     0.500084921243389d0     0.186906639369252d0
O1       0.198268504441573d0     0.750236248865719d0     0.238667392858710d0
O1       0.801993766892314d0     0.749987153755059d0     0.238669098461250d0
N1       0.018282091835253d0     0.489583008666667d0     0.777581913851554d0
N1       0.010526390689007d0     0.492395484023807d0     0.733790284135586d0
K_POINTS automatic
4 4 1  0 0 0 
