&CONTROL
  calculation='relax',
  prefix='calc',
  pseudo_dir='/storage/coda1/p-amedford6/0/shared/rich_project_chbe-medford/medford-share/data/pseudos_module/espresso/nninc/pbe/van',
  outdir='.',
  tefield=.true.,
  dipfield=.true.,
  tprnfor=.true.,
  disk_io='none',
/
&SYSTEM
  ibrav=0,
  celldm(1)=1.8897261245650618d0,
  nat=55,
  ntyp=5,
  ecutwfc=29.39945797996531d00,
  ecutrho=293.9945797996531d00,
  nbnd=211,
  occupations='smearing',
  smearing='fd',
  degauss=0.007349864494991328d00,
  input_dft='BEEF-vdW',
  edir=3,
  emaxpos=0.9906376843347516d00,
  eopreg=0.025d00,
  eamp=0.0d00,
  nosym=.false.,
  noinv=.false.,
  nosym_evc=.false.,
  no_t_rev=.false.,
/
&ELECTRONS
  diagonalization='david',
  conv_thr=7.349864494991327e-08,
  mixing_beta=0.05d00,
  electron_maxstep=1000,
  startingwfc='atomic',
/
&IONS
  ion_dynamics='ipi',
/
&CELL
  cell_dynamics='ipi',
/
CELL_PARAMETERS alat
    6.579727202290808d0     0.000000000000000d0     0.000000000000000d0
   -0.000775132442404d0     5.961596420607155d0     0.000000000000000d0
    0.000000000000000d0    -0.000000000000000d0    25.155947251439940d0
ATOMIC_SPECIES
Ti1 47.867d00 Ti.UPF
O1 15.999d00 O.UPF
C1 12.011d00 C.UPF
H1 1.008d00 H.UPF
N1 14.007d00 N.UPF
ATOMIC_POSITIONS {crystal}
Ti1      0.000123603383822d0     0.499897385958537d0     0.238512187198856d0
Ti1      0.500142521004230d0     0.250038178055688d0     0.238522014307695d0
O1       0.000095322930372d0     0.000084774873452d0     0.317452257936818d0
O1       0.500112315057126d0     0.000084209992886d0     0.290342007718641d0
O1       0.698270105622955d0     0.250236102495782d0     0.369213011426276d0
O1       0.301995368073695d0     0.249987007385122d0     0.369214717028816d0
Ti1      0.494860407507567d0     0.496344404159927d0     0.364008303546561d0
Ti1      0.993487923571136d0     0.250490607994722d0     0.368055933961631d0
O1       0.501433161405307d0     0.999534295093058d0     0.453025133872922d0
O1       0.001521177058471d0     0.000025838594727d0     0.421856572864328d0
O1       0.197403652402296d0     0.250732192790627d0     0.504239924134784d0
O1       0.807055768900580d0     0.249778322994790d0     0.504010469267963d0
Ti1      0.002976787605990d0     0.498690771360789d0     0.496649510727650d0
Ti1      0.504683933289440d0     0.249371835372728d0     0.498736103184267d0
O1       0.003756070704075d0     0.996893369705209d0     0.583335279751262d0
O1       0.502144315783856d0     0.998096390386304d0     0.557797343189233d0
O1       0.693065704923382d0     0.250998851668480d0     0.642200080431504d0
O1       0.307689676852362d0     0.253472985091447d0     0.642590480166227d0
Ti1      0.503910880957962d0     0.499153637437917d0     0.627545440060999d0
Ti1      0.005105518899832d0     0.228448554870703d0     0.631644219409394d0
O1       0.500093721748991d0     0.000084921243389d0     0.186906639369252d0
O1       0.997621836343379d0     0.009285791513302d0     0.684469298882658d0
O1       0.198268504441574d0     0.250236248865719d0     0.238667392858710d0
O1       0.801993766892314d0     0.249987153755059d0     0.238669098461250d0
Ti1      0.000123603383822d0     0.999897385958537d0     0.238512187198856d0
Ti1      0.500142521004230d0     0.750038178055688d0     0.238522014307695d0
O1       0.000095322930372d0     0.500084774873452d0     0.317452257936818d0
O1       0.500112315057126d0     0.500084209992886d0     0.290342007718641d0
O1       0.698270105622955d0     0.750236102495782d0     0.369213011426276d0
O1       0.301995368073695d0     0.749987007385122d0     0.369214717028816d0
Ti1      0.495468323879926d0     0.996336020192772d0     0.364034147926885d0
Ti1      0.993449747442596d0     0.750570097613738d0     0.367979462303469d0
O1       0.501866857355908d0     0.498776552805087d0     0.452942306091299d0
O1       0.000867356161707d0     0.499636436962961d0     0.422519319976249d0
O1       0.197580485407233d0     0.748074017663302d0     0.503720757228858d0
O1       0.806935027615862d0     0.749061699415652d0     0.503556827322138d0
Ti1      0.004487381319082d0     0.998441821604027d0     0.496163276207455d0
Ti1      0.504533126170459d0     0.748869559219822d0     0.498673666381152d0
O1       0.997810117440541d0     0.504305440260229d0     0.595835081919707d0
O1       0.503406256565976d0     0.500162588573354d0     0.556149748676059d0
O1       0.693330887850445d0     0.748093045022207d0     0.643925736831544d0
O1       0.306400560103122d0     0.746451773586846d0     0.643580688676513d0
Ti1      0.502120790737484d0     0.999355915167432d0     0.629488552099553d0
Ti1      0.003399829152159d0     0.775358753975429d0     0.634858929347450d0
O1       0.500093721748991d0     0.500084921243389d0     0.186906639369252d0
O1       0.198268504441574d0     0.750236248865719d0     0.238667392858710d0
O1       0.801993766892315d0     0.749987153755059d0     0.238669098461250d0
C1       0.973440601217026d0     0.497425488745953d0     0.763361807618573d0
O1       0.795392089159482d0     0.364455932829695d0     0.767074850897200d0
H1       0.939891139782563d0     0.661143164204339d0     0.780358656033927d0
H1       0.823494856710304d0     0.222314121918079d0     0.749764752320551d0
H1       0.103595481352666d0     0.422379900674001d0     0.783803077624628d0
H1       0.019724543673053d0     0.524430117564507d0     0.721568869911254d0
N1       0.421593014839597d0     0.928471946474209d0     0.794368729300251d0
N1       0.463832196085866d0     0.961094642800716d0     0.752639038184739d0
K_POINTS automatic
4 4 1  0 0 0 
