&CONTROL
  calculation='relax',
  prefix='calc',
  pseudo_dir='/storage/coda1/p-amedford6/0/shared/rich_project_chbe-medford/medford-share/data/pseudos_module/espresso/nninc/pbe/van',
  outdir='.',
  tefield=.true.,
  dipfield=.true.,
  tprnfor=.true.,
  disk_io='none',
/
&SYSTEM
  ibrav=0,
  celldm(1)=1.8897261245650618d0,
  nat=55,
  ntyp=5,
  ecutwfc=29.39945797996531d00,
  ecutrho=293.9945797996531d00,
  nbnd=211,
  occupations='smearing',
  smearing='fd',
  degauss=0.007349864494991328d00,
  input_dft='BEEF-vdW',
  edir=3,
  emaxpos=0.9898604997989393d00,
  eopreg=0.025d00,
  eamp=0.0d00,
  nosym=.false.,
  noinv=.false.,
  nosym_evc=.false.,
  no_t_rev=.false.,
/
&ELECTRONS
  diagonalization='david',
  conv_thr=7.349864494991327e-08,
  mixing_beta=0.05d00,
  electron_maxstep=1000,
  startingwfc='atomic',
/
&IONS
  ion_dynamics='ipi',
/
&CELL
  cell_dynamics='ipi',
/
CELL_PARAMETERS alat
    6.579727202290808d0     0.000000000000000d0     0.000000000000000d0
   -0.000775132442404d0     5.961596420607155d0     0.000000000000000d0
    0.000000000000000d0    -0.000000000000000d0    25.155947251439940d0
ATOMIC_SPECIES
Ti1 47.867d00 Ti.UPF
O1 15.999d00 O.UPF
C1 12.011d00 C.UPF
H1 1.008d00 H.UPF
N1 14.007d00 N.UPF
ATOMIC_POSITIONS {crystal}
Ti1      0.000123603383822d0     0.499897385958537d0     0.238512187198856d0
Ti1      0.500142521004230d0     0.250038178055688d0     0.238522014307695d0
O1       0.000095322930372d0     0.000084774873452d0     0.317452257936818d0
O1       0.500112315057126d0     0.000084209992886d0     0.290342007718641d0
O1       0.698270105622955d0     0.250236102495782d0     0.369213011426276d0
O1       0.301995368073695d0     0.249987007385122d0     0.369214717028816d0
Ti1      0.506434562722500d0     0.504940257002620d0     0.363678483267108d0
Ti1      0.007187903468098d0     0.250327670818603d0     0.367696663843906d0
O1       0.494608521079878d0     0.001386235967368d0     0.450571947738048d0
O1       0.999212763583113d0     0.999605780813414d0     0.421166995942157d0
O1       0.189904416599173d0     0.256042213178378d0     0.500606723223946d0
O1       0.798003936298043d0     0.256281703493434d0     0.500252460072643d0
Ti1      0.993609504537416d0     0.503025799778744d0     0.495322212392628d0
Ti1      0.494711694716471d0     0.254173412158837d0     0.495144641290278d0
O1       0.988681779616594d0     0.023695801422351d0     0.582180311774016d0
O1       0.494281560391481d0     0.008547709725287d0     0.553824967406051d0
O1       0.681802399657466d0     0.250674510973350d0     0.643202512944814d0
O1       0.302539051209386d0     0.250524561186752d0     0.642881616957744d0
Ti1      0.491752082769340d0     0.500281812255242d0     0.624140069991225d0
Ti1      0.989274579654707d0     0.237486970735480d0     0.639029090972013d0
O1       0.500093721748991d0     0.000084921243389d0     0.186906639369252d0
O1       0.988504289024729d0     0.967425056000424d0     0.683558845066997d0
O1       0.198268504441574d0     0.250236248865719d0     0.238667392858710d0
O1       0.801993766892314d0     0.249987153755059d0     0.238669098461250d0
Ti1      0.000123603383822d0     0.999897385958537d0     0.238512187198856d0
Ti1      0.500142521004230d0     0.750038178055688d0     0.238522014307695d0
O1       0.000095322930372d0     0.500084774873452d0     0.317452257936818d0
O1       0.500112315057126d0     0.500084209992886d0     0.290342007718641d0
O1       0.698270105622955d0     0.750236102495782d0     0.369213011426276d0
O1       0.301995368073695d0     0.749987007385122d0     0.369214717028816d0
Ti1      0.505162518227897d0     0.004163079488506d0     0.363895579988948d0
Ti1      0.007131135736196d0     0.751864899904636d0     0.367498422276290d0
O1       0.494845747066423d0     0.506374598093686d0     0.450347094706007d0
O1       0.998519426157485d0     0.503383195265509d0     0.421319398555605d0
O1       0.188771791741694d0     0.752851530281820d0     0.504051164113431d0
O1       0.798604213968367d0     0.752980458265707d0     0.502879959081665d0
Ti1      0.993489204080570d0     0.006958821564635d0     0.495991976268665d0
Ti1      0.494362316337829d0     0.754755455350059d0     0.496496069815624d0
O1       0.989924155493237d0     0.490828831282453d0     0.594783213142589d0
O1       0.492588556575172d0     0.499004027720833d0     0.553318496884186d0
O1       0.682854230061988d0     0.748796174196074d0     0.637289354395189d0
O1       0.302909305147123d0     0.751367185107890d0     0.637256224749252d0
Ti1      0.493513239446689d0     0.003712228602244d0     0.625105395208283d0
Ti1      0.991667099852384d0     0.780470068811281d0     0.625755020638250d0
O1       0.500093721748991d0     0.500084921243389d0     0.186906639369252d0
O1       0.198268504441574d0     0.750236248865719d0     0.238667392858710d0
O1       0.801993766892315d0     0.749987153755059d0     0.238669098461250d0
C1       0.978376224805949d0     0.353464733809996d0     0.770957297523777d0
O1       0.982588075964822d0     0.451943308527150d0     0.718604249127104d0
H1       0.974623206795270d0     0.173145370353044d0     0.765440910386689d0
H1       0.959739032487999d0     0.612948711846583d0     0.721165199500100d0
H1       0.114257638456922d0     0.401347995500552d0     0.792814360228626d0
H1       0.843153190387233d0     0.407672358640924d0     0.792201105991527d0
N1       0.358401961592991d0     0.794436794943977d0     0.783200233062304d0
N1       0.460817195164373d0     0.692684212204190d0     0.758073065067792d0
K_POINTS automatic
4 4 1  0 0 0 
