&CONTROL
  calculation='relax',
  prefix='calc',
  pseudo_dir='/storage/coda1/p-amedford6/0/shared/rich_project_chbe-medford/medford-share/data/pseudos_module/espresso/nninc/pbe/van',
  outdir='.',
  tefield=.true.,
  dipfield=.true.,
  tprnfor=.true.,
  disk_io='none',
/
&SYSTEM
  ibrav=0,
  celldm(1)=1.8897261245650618d0,
  nat=53,
  ntyp=5,
  ecutwfc=29.39945797996531d00,
  ecutrho=293.9945797996531d00,
  nbnd=207,
  occupations='smearing',
  smearing='fd',
  degauss=0.007349864494991328d00,
  input_dft='BEEF-vdW',
  edir=3,
  emaxpos=0.9802328708046417d00,
  eopreg=0.025d00,
  eamp=0.0d00,
  nosym=.false.,
  noinv=.false.,
  nosym_evc=.false.,
  no_t_rev=.false.,
/
&ELECTRONS
  diagonalization='david',
  conv_thr=7.349864494991327e-08,
  mixing_beta=0.05d00,
  electron_maxstep=1000,
  startingwfc='atomic',
/
&IONS
  ion_dynamics='ipi',
/
&CELL
  cell_dynamics='ipi',
/
CELL_PARAMETERS alat
    6.579727202290808d0     0.000000000000000d0     0.000000000000000d0
   -0.000775132442404d0     5.961596420607155d0     0.000000000000000d0
    0.000000000000000d0    -0.000000000000000d0    25.155947251439940d0
ATOMIC_SPECIES
Ti1 47.867d00 Ti.UPF
O1 15.999d00 O.UPF
H1 1.008d00 H.UPF
N1 14.007d00 N.UPF
C1 12.011d00 C.UPF
ATOMIC_POSITIONS {crystal}
Ti1      0.000123603383822d0     0.499897385958536d0     0.238512187198856d0
Ti1      0.500142521004230d0     0.250038178055688d0     0.238522014307695d0
O1       0.000095322930372d0     0.000084774873452d0     0.317452257936818d0
O1       0.500112315057126d0     0.000084209992886d0     0.290342007718641d0
O1       0.698270105622955d0     0.250236102495782d0     0.369213011426276d0
O1       0.301995368073695d0     0.249987007385122d0     0.369214717028816d0
Ti1      0.500198167309398d0     0.485761668506182d0     0.364758343030283d0
Ti1      0.000261424674789d0     0.248709163236136d0     0.368424970923767d0
O1       0.501660380225588d0     0.000251808835948d0     0.449809039295776d0
O1       0.001882992193933d0     0.999479849154423d0     0.422099495650131d0
O1       0.199439132403409d0     0.251767482696871d0     0.501275759178877d0
O1       0.806853481291095d0     0.251522375363186d0     0.501872843901653d0
Ti1      0.994164121408516d0     0.496637821726991d0     0.499667991587117d0
Ti1      0.489973349071140d0     0.250373107981617d0     0.495816208539525d0
O1       0.007312131807296d0     0.011985068213966d0     0.582662438625549d0
O1       0.500609050193174d0     0.003913601951180d0     0.552458811872000d0
O1       0.698860366498073d0     0.257659822321089d0     0.636294100956140d0
O1       0.316241587963624d0     0.260833645035268d0     0.639684276811879d0
Ti1      0.504052490337888d0     0.507411180863059d0     0.622116506751178d0
Ti1      0.005578535341088d0     0.255139795735873d0     0.635065532451191d0
O1       0.500093721748991d0     0.000084921243389d0     0.186906639369252d0
O1       0.010086540779073d0     0.997587995543857d0     0.682661387066333d0
O1       0.198268504441574d0     0.250236248865719d0     0.238667392858710d0
O1       0.801993766892314d0     0.249987153755059d0     0.238669098461250d0
Ti1      0.000123603383822d0     0.999897385958536d0     0.238512187198856d0
Ti1      0.500142521004230d0     0.750038178055688d0     0.238522014307695d0
O1       0.000095322930372d0     0.500084774873452d0     0.317452257936818d0
O1       0.500112315057126d0     0.500084209992886d0     0.290342007718641d0
O1       0.698270105622955d0     0.750236102495782d0     0.369213011426276d0
O1       0.301995368073695d0     0.749987007385122d0     0.369214717028816d0
Ti1      0.500001644927041d0     0.985370751416071d0     0.364779031055315d0
Ti1      0.000183276761494d0     0.748948988039575d0     0.368476322807288d0
O1       0.501153327611307d0     0.501462239175327d0     0.449885527276865d0
O1       0.001460782485842d0     0.499964783615161d0     0.422656139091726d0
O1       0.199441644377517d0     0.751976592230164d0     0.501968257518877d0
O1       0.806959454704410d0     0.750270085674093d0     0.502580521585877d0
Ti1      0.994004428043655d0     0.997188991443327d0     0.497471647407195d0
Ti1      0.489972946670687d0     0.749048967608715d0     0.495764622485478d0
O1       0.008764710839807d0     0.498860358116821d0     0.588319426854572d0
O1       0.501752658483349d0     0.502014565146968d0     0.551466383678499d0
O1       0.695675221441244d0     0.756924286536008d0     0.635926781120592d0
O1       0.317631148735699d0     0.755519195005831d0     0.637322436862169d0
Ti1      0.507333593778581d0     0.006768537618266d0     0.624004814744181d0
Ti1      0.006454718236715d0     0.791663059793338d0     0.632876664661624d0
O1       0.500093721748991d0     0.500084921243389d0     0.186906639369252d0
O1       0.198268504441574d0     0.750236248865719d0     0.238667392858710d0
O1       0.801993766892315d0     0.749987153755059d0     0.238669098461250d0
H1       0.695791586490475d0     0.472161380579504d0     0.708071092093135d0
N1       0.977354210779602d0     0.462542696864018d0     0.714446277914543d0
C1       0.144117823390361d0     0.521698502930131d0     0.741259033568050d0
H1       0.130431276876505d0     0.638306657944060d0     0.773559102240031d0
H1       0.286137744825259d0     0.445454255978302d0     0.731335276648251d0
N1       0.800226267585976d0     0.501632411497787d0     0.737510713001591d0
K_POINTS automatic
4 4 1  0 0 0 
