&CONTROL
  calculation='relax',
  prefix='calc',
  pseudo_dir='/storage/coda1/p-amedford6/0/shared/rich_project_chbe-medford/medford-share/data/pseudos_module/espresso/nninc/pbe/van',
  outdir='.',
  tefield=.true.,
  dipfield=.true.,
  tprnfor=.true.,
  disk_io='none',
/
&SYSTEM
  ibrav=0,
  celldm(1)=1.8897261245650618d0,
  nat=54,
  ntyp=5,
  ecutwfc=29.39945797996531d00,
  ecutrho=293.9945797996531d00,
  nbnd=208,
  occupations='smearing',
  smearing='fd',
  degauss=0.007349864494991328d00,
  input_dft='BEEF-vdW',
  edir=3,
  emaxpos=0.995309324404285d00,
  eopreg=0.025d00,
  eamp=0.0d00,
  nosym=.false.,
  noinv=.false.,
  nosym_evc=.false.,
  no_t_rev=.false.,
/
&ELECTRONS
  diagonalization='david',
  conv_thr=7.349864494991327e-08,
  mixing_beta=0.05d00,
  electron_maxstep=1000,
  startingpot='file',
  startingwfc='atomic',
/
&IONS
  ion_dynamics='ipi',
/
&CELL
  cell_dynamics='ipi',
/
CELL_PARAMETERS alat
    6.579727202290808d0     0.000000000000000d0     0.000000000000000d0
   -0.000775132442404d0     5.961596420607155d0     0.000000000000000d0
    0.000000000000000d0    -0.000000000000000d0    25.155947251439940d0
ATOMIC_SPECIES
Ti1 47.867d00 Ti.UPF
O1 15.999d00 O.UPF
N1 14.007d00 N.UPF
C1 12.011d00 C.UPF
H1 1.008d00 H.UPF
ATOMIC_POSITIONS {crystal}
Ti1      0.000123603383822d0     0.499897385958536d0     0.238512187198856d0
Ti1      0.500142521004230d0     0.250038178055688d0     0.238522014307695d0
O1       0.000095322930372d0     0.000084774873452d0     0.317452257936818d0
O1       0.500112315057126d0     0.000084209992886d0     0.290342007718641d0
O1       0.698270105622955d0     0.250236102495782d0     0.369213011426276d0
O1       0.301995368073695d0     0.249987007385122d0     0.369214717028816d0
Ti1      0.500198167309398d0     0.485761668506182d0     0.364758343030283d0
Ti1      0.000261424674789d0     0.248709163236136d0     0.368424970923767d0
O1       0.501763700385508d0     0.998638223470610d0     0.451399411330422d0
O1       0.001882992193933d0     0.999479849154423d0     0.422099495650131d0
O1       0.198357272992418d0     0.249309205261620d0     0.502351596729653d0
O1       0.804613537225388d0     0.248913735339287d0     0.502544725227200d0
Ti1      0.004575757213119d0     0.497020716999110d0     0.499180238799740d0
Ti1      0.505549129256731d0     0.248903864997900d0     0.496826124969744d0
O1       0.004399097631393d0     0.005253424615125d0     0.584040058692237d0
O1       0.500429734665890d0     0.001733150747619d0     0.556033680276112d0
O1       0.694409242054342d0     0.254153378673385d0     0.641994753265119d0
O1       0.314117708248544d0     0.258867979387917d0     0.645816388947292d0
Ti1      0.506012176987321d0     0.503642630254181d0     0.624474353328742d0
Ti1      0.994306388143067d0     0.249261638024608d0     0.632104158843347d0
O1       0.500093721748991d0     0.000084921243389d0     0.186906639369252d0
O1       0.004688398782625d0     0.992984788370195d0     0.685314920550436d0
O1       0.198268504441574d0     0.250236248865719d0     0.238667392858710d0
O1       0.801993766892314d0     0.249987153755059d0     0.238669098461250d0
Ti1      0.000123603383822d0     0.999897385958536d0     0.238512187198856d0
Ti1      0.500142521004230d0     0.750038178055688d0     0.238522014307695d0
O1       0.000095322930372d0     0.500084774873452d0     0.317452257936818d0
O1       0.500112315057126d0     0.500084209992886d0     0.290342007718641d0
O1       0.698270105622955d0     0.750236102495782d0     0.369213011426276d0
O1       0.301995368073695d0     0.749987007385122d0     0.369214717028816d0
Ti1      0.500001644927041d0     0.985370751416071d0     0.364779031055315d0
Ti1      0.000183276761494d0     0.748948988039575d0     0.368476322807288d0
O1       0.501926038006267d0     0.499896243254573d0     0.451103475241595d0
O1       0.001460782485842d0     0.499964783615161d0     0.422656139091726d0
O1       0.198069648340659d0     0.749232025558273d0     0.503052408975206d0
O1       0.805061474256738d0     0.749807423519569d0     0.503276472360802d0
Ti1      0.004382427781968d0     0.997005160837904d0     0.497394643035666d0
Ti1      0.505463602910857d0     0.748525642959372d0     0.496979842029248d0
O1       0.002814985118249d0     0.493430825303209d0     0.587840526471421d0
O1       0.501558822630464d0     0.498715392376222d0     0.553684604967940d0
O1       0.693728859716477d0     0.748399909585898d0     0.642082779486098d0
O1       0.313092765600828d0     0.747354508235061d0     0.641628483450931d0
Ti1      0.501409836640247d0     0.000699469032738d0     0.627177171488933d0
Ti1      0.007718980399197d0     0.780111790622784d0     0.636496051720625d0
O1       0.500093721748991d0     0.500084921243389d0     0.186906639369252d0
O1       0.198268504441574d0     0.750236248865719d0     0.238667392858710d0
O1       0.801993766892315d0     0.749987153755059d0     0.238669098461250d0
N1       0.155013234995563d0     0.469314538550796d0     0.734755624549625d0
N1       0.996003209466611d0     0.491738134152781d0     0.701884121594485d0
C1       0.178489101630356d0     0.536646593469614d0     0.783744877338269d0
H1       0.319648490832666d0     0.497642242716823d0     0.803712009439318d0
H1       0.059479439238405d0     0.630645254510548d0     0.803026940634076d0
H1       0.268644065298105d0     0.382417454582274d0     0.715530450828422d0
H1       0.871497619184750d0     0.539858112891068d0     0.723038787599148d0
K_POINTS automatic
4 4 1  0 0 0 
