&CONTROL
  calculation='relax',
  prefix='calc',
  pseudo_dir='/storage/coda1/p-amedford6/0/shared/rich_project_chbe-medford/medford-share/data/pseudos_module/espresso/nninc/pbe/van',
  outdir='.',
  tefield=.true.,
  dipfield=.true.,
  tprnfor=.true.,
  disk_io='none',
/
&SYSTEM
  ibrav=0,
  celldm(1)=1.8897261245650618d0,
  nat=58,
  ntyp=5,
  ecutwfc=29.39945797996531d00,
  ecutrho=293.9945797996531d00,
  nbnd=212,
  occupations='smearing',
  smearing='fd',
  degauss=0.007349864494991328d00,
  input_dft='BEEF-vdW',
  edir=3,
  emaxpos=0.9853459950232691d00,
  eopreg=0.025d00,
  eamp=0.0d00,
  nosym=.false.,
  noinv=.false.,
  nosym_evc=.false.,
  no_t_rev=.false.,
/
&ELECTRONS
  diagonalization='david',
  conv_thr=7.349864494991327e-08,
  mixing_beta=0.05d00,
  electron_maxstep=1000,
  startingpot='file',
  startingwfc='atomic',
/
&IONS
  ion_dynamics='ipi',
/
&CELL
  cell_dynamics='ipi',
/
CELL_PARAMETERS alat
    6.579727202290808d0     0.000000000000000d0     0.000000000000000d0
   -0.000775132442404d0     5.961596420607155d0     0.000000000000000d0
    0.000000000000000d0    -0.000000000000000d0    25.155947251439940d0
ATOMIC_SPECIES
Ti1 47.867d00 Ti.UPF
O1 15.999d00 O.UPF
N1 14.007d00 N.UPF
C1 12.011d00 C.UPF
H1 1.008d00 H.UPF
ATOMIC_POSITIONS {crystal}
Ti1      0.000123603383822d0     0.499897385958536d0     0.238512187198856d0
Ti1      0.500142521004230d0     0.250038178055688d0     0.238522014307695d0
O1       0.000095322930372d0     0.000084774873452d0     0.317452257936818d0
O1       0.500112315057126d0     0.000084209992886d0     0.290342007718641d0
O1       0.698270105622955d0     0.250236102495782d0     0.369213011426276d0
O1       0.301995368073695d0     0.249987007385122d0     0.369214717028816d0
Ti1      0.500198167309398d0     0.485761668506182d0     0.364758343030283d0
Ti1      0.000261424674789d0     0.248709163236136d0     0.368424970923767d0
O1       0.501472799631417d0     0.996406223368339d0     0.451391601062376d0
O1       0.001882992193933d0     0.999479849154423d0     0.422099495650131d0
O1       0.199040242323818d0     0.249761317332554d0     0.502540586860566d0
O1       0.806164800266983d0     0.250487912641109d0     0.501445520987734d0
Ti1      0.004656040114080d0     0.498694972685212d0     0.498681808190133d0
Ti1      0.505720884793817d0     0.247444111060404d0     0.496584999705009d0
O1       0.992919543496257d0     0.012743629093026d0     0.583274609704170d0
O1       0.508288102118911d0     0.002148957289456d0     0.556472455966937d0
O1       0.689787368068187d0     0.254142739173298d0     0.646071247120828d0
O1       0.305626662710210d0     0.253223557678731d0     0.640960197759669d0
Ti1      0.493523839008860d0     0.492739645301784d0     0.623403784529754d0
Ti1      0.994024863305794d0     0.231651004672102d0     0.640419829399610d0
O1       0.500093721748991d0     0.000084921243389d0     0.186906639369252d0
O1       0.013109956111395d0     0.978090222994430d0     0.685565335426027d0
O1       0.198268504441574d0     0.250236248865719d0     0.238667392858710d0
O1       0.801993766892314d0     0.249987153755059d0     0.238669098461250d0
Ti1      0.000123603383822d0     0.999897385958536d0     0.238512187198856d0
Ti1      0.500142521004230d0     0.750038178055688d0     0.238522014307695d0
O1       0.000095322930372d0     0.500084774873452d0     0.317452257936818d0
O1       0.500112315057126d0     0.500084209992886d0     0.290342007718641d0
O1       0.698270105622955d0     0.750236102495782d0     0.369213011426276d0
O1       0.301995368073695d0     0.749987007385122d0     0.369214717028816d0
Ti1      0.500001644927041d0     0.985370751416071d0     0.364779031055315d0
Ti1      0.000183276761494d0     0.748948988039575d0     0.368476322807288d0
O1       0.501274797002309d0     0.500527759169727d0     0.451130549803763d0
O1       0.001460782485842d0     0.499964783615161d0     0.422656139091726d0
O1       0.198537713873042d0     0.750230889729162d0     0.504612438098289d0
O1       0.806139530720436d0     0.749300763657223d0     0.503111450472880d0
Ti1      0.003649917349111d0     0.001589180647235d0     0.497278141457811d0
Ti1      0.506042011850027d0     0.748381184439156d0     0.497703489020055d0
O1       0.995310675398447d0     0.492106160299753d0     0.589831399708946d0
O1       0.505302929382409d0     0.493827504772725d0     0.552829709509600d0
O1       0.691280347715385d0     0.738042792268516d0     0.641488645486056d0
O1       0.307235656091058d0     0.741851997361740d0     0.635185371521071d0
Ti1      0.505002501631198d0     0.997011066557483d0     0.628607996083759d0
Ti1      0.011193131259873d0     0.763965214724265d0     0.625315821218530d0
O1       0.500093721748991d0     0.500084921243389d0     0.186906639369252d0
O1       0.198268504441574d0     0.750236248865719d0     0.238667392858710d0
O1       0.801993766892315d0     0.749987153755059d0     0.238669098461250d0
N1       0.006949951135936d0     0.482901180458835d0     0.711922188255044d0
C1       0.153397296331032d0     0.469813047412764d0     0.749054990352390d0
H1       0.153269221817754d0     0.577256946933008d0     0.783785350677286d0
H1       0.288112266940723d0     0.378144270234123d0     0.738595929556772d0
N1       0.840841868446597d0     0.616034124762958d0     0.732888777420997d0
H1       0.896414020992398d0     0.776151861362239d0     0.740890357719910d0
H1       0.739518771592796d0     0.647954565697914d0     0.701396900002638d0
H1       0.775558755507873d0     0.542887395892888d0     0.765751580216621d0
O1       0.439771620576461d0     0.948047290353318d0     0.726197616886568d0
H1       0.466723579211225d0     0.086134529656014d0     0.745193015005834d0
H1       0.291627912863883d0     0.947389090021657d0     0.719967834338781d0
K_POINTS automatic
4 4 1  0 0 0 
