&CONTROL
  calculation='relax',
  prefix='calc',
  pseudo_dir='/storage/coda1/p-amedford6/0/shared/rich_project_chbe-medford/medford-share/data/pseudos_module/espresso/nninc/pbe/van',
  outdir='.',
  tefield=.true.,
  dipfield=.true.,
  tprnfor=.true.,
  disk_io='none',
/
&SYSTEM
  ibrav=0,
  celldm(1)=1.8897261245650618d0,
  nat=57,
  ntyp=5,
  ecutwfc=29.39945797996531d00,
  ecutrho=293.9945797996531d00,
  nbnd=214,
  occupations='smearing',
  smearing='fd',
  degauss=0.007349864494991328d00,
  input_dft='BEEF-vdW',
  edir=3,
  emaxpos=0.044955930579261505d00,
  eopreg=0.025d00,
  eamp=0.0d00,
  nosym=.false.,
  noinv=.false.,
  nosym_evc=.false.,
  no_t_rev=.false.,
/
&ELECTRONS
  diagonalization='david',
  conv_thr=7.349864494991327e-08,
  mixing_beta=0.05d00,
  electron_maxstep=1000,
  startingpot='file',
  startingwfc='atomic',
/
&IONS
  ion_dynamics='ipi',
/
&CELL
  cell_dynamics='ipi',
/
CELL_PARAMETERS alat
    6.579727202290808d0     0.000000000000000d0     0.000000000000000d0
   -0.000775132442404d0     5.961596420607155d0     0.000000000000000d0
    0.000000000000000d0    -0.000000000000000d0    25.155947251439940d0
ATOMIC_SPECIES
Ti1 47.867d00 Ti.UPF
O1 15.999d00 O.UPF
C1 12.011d00 C.UPF
H1 1.008d00 H.UPF
N1 14.007d00 N.UPF
ATOMIC_POSITIONS {crystal}
Ti1      0.000123603383822d0     0.499897385958537d0     0.238512187198856d0
Ti1      0.500142521004230d0     0.250038178055688d0     0.238522014307695d0
O1       0.000095322930372d0     0.000084774873452d0     0.317452257936818d0
O1       0.500112315057126d0     0.000084209992886d0     0.290342007718641d0
O1       0.698270105622955d0     0.250236102495782d0     0.369213011426276d0
O1       0.301995368073695d0     0.249987007385122d0     0.369214717028816d0
Ti1      0.503321859905492d0     0.509165114622383d0     0.364201378337445d0
Ti1      0.002187315926481d0     0.270727136795392d0     0.372178646187130d0
O1       0.501000045040075d0     0.004815660522327d0     0.451253270986925d0
O1       0.000706421473921d0     0.002806667928612d0     0.421688035796350d0
O1       0.196335978106605d0     0.253994486688246d0     0.502902644906106d0
O1       0.804847085647191d0     0.255180900037147d0     0.502646604290974d0
Ti1      0.004670491244768d0     0.506259818958124d0     0.507798075048867d0
Ti1      0.507298467541396d0     0.254802864530671d0     0.496977026424042d0
O1       0.998567243868889d0     0.002719080539437d0     0.584898171082836d0
O1       0.503337552977755d0     0.003622373771017d0     0.554961125916054d0
O1       0.692860125279634d0     0.258460944011793d0     0.638591303652033d0
O1       0.309723871502937d0     0.258285060769465d0     0.637410812592960d0
Ti1      0.498651910193791d0     0.505339038052870d0     0.624035666148731d0
Ti1      0.003136648264014d0     0.232759138733241d0     0.639696862451152d0
O1       0.500093721748991d0     0.000084921243389d0     0.186906639369252d0
O1       0.005506272393293d0     0.003053092902124d0     0.685742522568953d0
O1       0.198268504441574d0     0.250236248865719d0     0.238667392858710d0
O1       0.801993766892314d0     0.249987153755059d0     0.238669098461250d0
Ti1      0.000123603383822d0     0.999897385958537d0     0.238512187198856d0
Ti1      0.500142521004230d0     0.750038178055688d0     0.238522014307695d0
O1       0.000095322930372d0     0.500084774873452d0     0.317452257936818d0
O1       0.500112315057126d0     0.500084209992886d0     0.290342007718641d0
O1       0.698270105622955d0     0.750236102495782d0     0.369213011426276d0
O1       0.301995368073695d0     0.749987007385122d0     0.369214717028816d0
Ti1      0.500297479311489d0     0.009811082287977d0     0.363948169947830d0
Ti1      0.002775234734708d0     0.762038887127492d0     0.368436065019996d0
O1       0.500754675033292d0     0.504008272554465d0     0.451312621594187d0
O1       0.001152307959504d0     0.502621837797389d0     0.420673241581563d0
O1       0.196496424371342d0     0.755843749904379d0     0.502447667414478d0
O1       0.804534719459248d0     0.754375477422981d0     0.502207797198435d0
Ti1      0.005472505964010d0     0.006202825420606d0     0.497904622786003d0
Ti1      0.507379668460617d0     0.756667758287057d0     0.496964742677950d0
O1       0.002835270948563d0     0.510184398675736d0     0.584060833403915d0
O1       0.501194102158493d0     0.505567905311955d0     0.553011701244217d0
O1       0.691890923030644d0     0.750679903350797d0     0.639692366943008d0
O1       0.309908856160588d0     0.750168865016226d0     0.638245510621742d0
Ti1      0.505694722648576d0     0.007334952375731d0     0.627606905191331d0
Ti1      0.002353958062477d0     0.759971161529995d0     0.633327000397282d0
O1       0.500093721748991d0     0.500084921243389d0     0.186906639369252d0
O1       0.198268504441574d0     0.750236248865719d0     0.238667392858710d0
O1       0.801993766892315d0     0.749987153755059d0     0.238669098461250d0
C1       0.921363277162481d0     0.504711570062269d0     0.741596545409648d0
O1       0.999932400317001d0     0.503130306392813d0     0.689304168050021d0
H1       0.755612207681060d0     0.483566843647340d0     0.741435230401111d0
H1       0.986544998247620d0     0.366282138586009d0     0.764486652292900d0
H1       0.958630186552175d0     0.663645993439674d0     0.761068112844304d0
N1       0.911200167392991d0     0.508270194030864d0     0.903005221789271d0
N1       0.794573230587085d0     0.533872573510503d0     0.872032360742105d0
O1       0.483589847519506d0     0.009927684075028d0     0.724305051106057d0
H1       0.582762799877315d0     0.904761692506566d0     0.737475449443642d0
H1       0.350989397704151d0     0.942501518752563d0     0.730386389918571d0
K_POINTS automatic
4 4 1  0 0 0 
