&CONTROL
  calculation='relax',
  prefix='calc',
  pseudo_dir='/storage/coda1/p-amedford6/0/shared/rich_project_chbe-medford/medford-share/data/pseudos_module/espresso/nninc/pbe/van',
  outdir='.',
  tefield=.true.,
  dipfield=.true.,
  tprnfor=.true.,
  disk_io='none',
/
&SYSTEM
  ibrav=0,
  celldm(1)=1.8897261245650618d0,
  nat=51,
  ntyp=4,
  ecutwfc=29.39945797996531d00,
  ecutrho=293.9945797996531d00,
  nbnd=205,
  occupations='smearing',
  smearing='fd',
  degauss=0.007349864494991328d00,
  input_dft='BEEF-vdW',
  edir=3,
  emaxpos=0.9770848732980388d00,
  eopreg=0.025d00,
  eamp=0.0d00,
  nosym=.false.,
  noinv=.false.,
  nosym_evc=.false.,
  no_t_rev=.false.,
/
&ELECTRONS
  diagonalization='david',
  conv_thr=7.349864494991327e-08,
  mixing_beta=0.05d00,
  electron_maxstep=1000,
  startingwfc='atomic',
/
&IONS
  ion_dynamics='ipi',
/
&CELL
  cell_dynamics='ipi',
/
CELL_PARAMETERS alat
    6.579727202290808d0     0.000000000000000d0     0.000000000000000d0
   -0.000775132442404d0     5.961596420607155d0     0.000000000000000d0
    0.000000000000000d0    -0.000000000000000d0    25.155947251439940d0
ATOMIC_SPECIES
O1 15.999d00 O.UPF
Ti1 47.867d00 Ti.UPF
C1 12.011d00 C.UPF
H1 1.008d00 H.UPF
ATOMIC_POSITIONS {crystal}
O1       0.500093721748991d0     0.000084921243389d0     0.186906639369252d0
O1       0.500093721748991d0     0.500084921243389d0     0.186906639369252d0
Ti1      0.000123603383822d0     0.499897385958537d0     0.238512187198856d0
Ti1      0.000123603383822d0     0.999897385958537d0     0.238512187198856d0
Ti1      0.500142521004230d0     0.250038178055688d0     0.238522014307695d0
Ti1      0.500142521004230d0     0.750038178055688d0     0.238522014307695d0
O1       0.198268504441574d0     0.250236248865719d0     0.238667392858710d0
O1       0.198268504441574d0     0.750236248865719d0     0.238667392858710d0
O1       0.801993766892314d0     0.249987153755059d0     0.238669098461250d0
O1       0.801993766892315d0     0.749987153755059d0     0.238669098461250d0
O1       0.500112315057126d0     0.000084209992886d0     0.290342007718641d0
O1       0.500112315057126d0     0.500084209992886d0     0.290342007718641d0
O1       0.000095322930372d0     0.000084774873452d0     0.317452257936818d0
O1       0.000095322930372d0     0.500084774873452d0     0.317452257936818d0
Ti1      0.503973418351483d0     0.006392554963298d0     0.363888556962596d0
Ti1      0.504535702893910d0     0.506011808521898d0     0.363993518777859d0
Ti1      0.005718899673573d0     0.753165185918773d0     0.368969445475597d0
Ti1      0.005355949372595d0     0.263274485280569d0     0.371288284769802d0
O1       0.698270105622955d0     0.250236102495782d0     0.369213011426276d0
O1       0.698270105622955d0     0.750236102495782d0     0.369213011426276d0
O1       0.301995368073695d0     0.249987007385122d0     0.369214717028816d0
O1       0.301995368073695d0     0.749987007385122d0     0.369214717028816d0
O1       0.001960172860696d0     0.001313181558204d0     0.421699883401524d0
O1       0.001700733455942d0     0.500772483129963d0     0.420389765465712d0
O1       0.505128461619331d0     0.501641184444687d0     0.451822050566992d0
O1       0.504881030071256d0     0.001832711831734d0     0.451940209656761d0
Ti1      0.005924776840538d0     0.004616472425763d0     0.496965876362376d0
Ti1      0.506052683546277d0     0.752191283615561d0     0.497204731241377d0
Ti1      0.506112021443035d0     0.252234777263246d0     0.497382876600347d0
Ti1      0.005601693833794d0     0.504054137931437d0     0.508040316176017d0
O1       0.201220276558970d0     0.752003215148910d0     0.502455206974305d0
O1       0.201198735937029d0     0.252248373401082d0     0.502549710153016d0
O1       0.809001889488623d0     0.751913088558410d0     0.502984347758293d0
O1       0.809084018132414d0     0.252269301250352d0     0.503057026813859d0
O1       0.504881484749666d0     0.501477134113148d0     0.554617215779810d0
O1       0.505280334587277d0     0.002162529221265d0     0.555533675107775d0
O1       0.007166885658576d0     0.002508317620102d0     0.584457519660361d0
O1       0.007649222655882d0     0.504212045755811d0     0.585456381625236d0
Ti1      0.506397273486567d0     0.501651481150879d0     0.625974255615382d0
Ti1      0.507777337871920d0     0.002271110772581d0     0.626659389893219d0
Ti1      0.007909395905135d0     0.763060100717584d0     0.632674700738377d0
Ti1      0.008075740025205d0     0.227737491370967d0     0.638555373537497d0
O1       0.696423554867838d0     0.750068349771273d0     0.640493103506198d0
O1       0.696173545987068d0     0.253872978366372d0     0.641397327448963d0
O1       0.316007012156957d0     0.253963562691286d0     0.641829122980977d0
O1       0.315651172258742d0     0.749876613720574d0     0.640916028513100d0
O1       0.004977483720499d0     0.998616533246297d0     0.684846171655069d0
O1       0.000755594922288d0     0.504156528349193d0     0.693067551892180d0
C1       0.968929078423957d0     0.522881824380888d0     0.742983106750042d0
H1       0.946691711841186d0     0.689355053958252d0     0.759565029179349d0
H1       0.962289999777589d0     0.372631313175497d0     0.767263107226825d0
K_POINTS automatic
4 4 1  0 0 0 
