&CONTROL
  calculation='relax',
  prefix='calc',
  pseudo_dir='/storage/coda1/p-amedford6/0/shared/rich_project_chbe-medford/medford-share/data/pseudos_module/espresso/nninc/pbe/van',
  outdir='.',
  tefield=.true.,
  dipfield=.true.,
  tprnfor=.true.,
  disk_io='none',
/
&SYSTEM
  ibrav=0,
  celldm(1)=1.8897261245650618d0,
  nat=48,
  ntyp=3,
  ecutwfc=29.39945797996531d00,
  ecutrho=293.9945797996531d00,
  nbnd=201,
  occupations='smearing',
  smearing='fd',
  degauss=0.007349864494991328d00,
  input_dft='BEEF-vdW',
  edir=3,
  emaxpos=0.9358539257222889d00,
  eopreg=0.025d00,
  eamp=0.0d00,
  nosym=.false.,
  noinv=.false.,
  nosym_evc=.false.,
  no_t_rev=.false.,
/
&ELECTRONS
  diagonalization='david',
  conv_thr=7.349864494991327e-08,
  mixing_beta=0.05d00,
  electron_maxstep=1000,
  startingwfc='atomic',
/
&IONS
  ion_dynamics='ipi',
/
&CELL
  cell_dynamics='ipi',
/
CELL_PARAMETERS alat
    6.579727202290808d0     0.000000000000000d0     0.000000000000000d0
   -0.000775132442404d0     5.961596420607155d0     0.000000000000000d0
    0.000000000000000d0    -0.000000000000000d0    25.155947251439940d0
ATOMIC_SPECIES
Ti1 47.867d00 Ti.UPF
O1 15.999d00 O.UPF
C1 12.011d00 C.UPF
ATOMIC_POSITIONS {crystal}
Ti1      0.000123603383822d0     0.499897385958537d0     0.238512187198856d0
Ti1      0.500142521004230d0     0.250038178055688d0     0.238522014307695d0
O1       0.000095322930372d0     0.000084774873452d0     0.317452257936818d0
O1       0.500112315057126d0     0.000084209992886d0     0.290342007718641d0
O1       0.698270105622955d0     0.250236102495782d0     0.369213011426276d0
O1       0.301995368073695d0     0.249987007385122d0     0.369214717028816d0
Ti1      0.500143925830098d0     0.499888037527580d0     0.367532689892465d0
Ti1      0.000123042152945d0     0.249918347861139d0     0.370327994276370d0
O1       0.500104921336119d0     0.000092331730623d0     0.449831450251102d0
O1       0.000114691590783d0     0.000091615255124d0     0.419673681926314d0
O1       0.197669560680325d0     0.250438218951280d0     0.499936717456381d0
O1       0.802579050144487d0     0.250274708434509d0     0.499937150703721d0
Ti1      0.000128275551388d0     0.499885894450142d0     0.501096585935197d0
Ti1      0.500140877064101d0     0.249877509261206d0     0.498722010306660d0
O1       0.000099473848652d0     0.000085318311678d0     0.576607152263885d0
O1       0.500115817091253d0     0.000079694802890d0     0.553567211785573d0
O1       0.685812050189991d0     0.251589516156241d0     0.632250092973745d0
O1       0.314446675585062d0     0.251405972255083d0     0.632250230081491d0
Ti1      0.500140724063573d0     0.499875887577124d0     0.625878006164086d0
Ti1      0.000117863248314d0     0.236506014772698d0     0.632099262787705d0
O1       0.500093721748991d0     0.000084921243389d0     0.186906639369252d0
O1       0.000114581797174d0     0.000100297263465d0     0.680274368219496d0
O1       0.198268504441574d0     0.250236248865719d0     0.238667392858710d0
O1       0.801993766892314d0     0.249987153755059d0     0.238669098461250d0
Ti1      0.000123603383822d0     0.999897385958537d0     0.238512187198856d0
Ti1      0.500142521004230d0     0.750038178055688d0     0.238522014307695d0
O1       0.000095322930372d0     0.500084774873452d0     0.317452257936818d0
O1       0.500112315057126d0     0.500084209992886d0     0.290342007718641d0
O1       0.698270105622955d0     0.750236102495782d0     0.369213011426276d0
O1       0.301995368073695d0     0.749987007385122d0     0.369214717028816d0
Ti1      0.500144232479228d0     0.999887951867138d0     0.367522633863060d0
Ti1      0.000123519690597d0     0.750149122433741d0     0.370328072693599d0
O1       0.500104833400712d0     0.500092247999104d0     0.449827630944818d0
O1       0.000114670149586d0     0.500091211007333d0     0.419776423324172d0
O1       0.197671783536930d0     0.749950521229628d0     0.499936667601475d0
O1       0.802578673460053d0     0.749787127616260d0     0.499937193932654d0
Ti1      0.000128311298824d0     0.999888462704089d0     0.501480483826766d0
Ti1      0.500139766574891d0     0.750185448107578d0     0.498721945085767d0
O1       0.000100855572369d0     0.500086569635780d0     0.577814588978513d0
O1       0.500115923603886d0     0.500078831282814d0     0.553621301212771d0
O1       0.685807247467343d0     0.748845488268834d0     0.632248078379120d0
O1       0.314437397552282d0     0.748665157285490d0     0.632250484132766d0
Ti1      0.500142147112666d0     0.999876604321842d0     0.626396114726884d0
Ti1      0.000123600157663d0     0.763565369901757d0     0.632093144651578d0
O1       0.500093721748991d0     0.500084921243389d0     0.186906639369252d0
C1       0.000108206359466d0     0.500077636399380d0     0.684801212075325d0
O1       0.198268504441574d0     0.750236248865719d0     0.238667392858710d0
O1       0.801993766892315d0     0.749987153755059d0     0.238669098461250d0
K_POINTS automatic
4 4 1  0 0 0 
