&CONTROL
  calculation='relax',
  prefix='calc',
  pseudo_dir='/storage/coda1/p-amedford6/0/shared/rich_project_chbe-medford/medford-share/data/pseudos_module/espresso/nninc/pbe/van',
  outdir='.',
  tefield=.true.,
  dipfield=.true.,
  tprnfor=.true.,
  disk_io='none',
/
&SYSTEM
  ibrav=0,
  celldm(1)=1.8897261245650618d0,
  nat=50,
  ntyp=3,
  ecutwfc=29.39945797996531d00,
  ecutrho=293.9945797996531d00,
  nbnd=205,
  occupations='smearing',
  smearing='fd',
  degauss=0.007349864494991328d00,
  input_dft='BEEF-vdW',
  edir=3,
  emaxpos=0.9749520098897073d00,
  eopreg=0.025d00,
  eamp=0.0d00,
  nosym=.false.,
  noinv=.false.,
  nosym_evc=.false.,
  no_t_rev=.false.,
/
&ELECTRONS
  diagonalization='david',
  conv_thr=7.349864494991327e-08,
  mixing_beta=0.05d00,
  electron_maxstep=1000,
  startingpot='file',
  startingwfc='atomic',
/
&IONS
  ion_dynamics='ipi',
/
&CELL
  cell_dynamics='ipi',
/
CELL_PARAMETERS alat
    6.579727202290808d0     0.000000000000000d0     0.000000000000000d0
   -0.000775132442404d0     5.961596420607155d0     0.000000000000000d0
    0.000000000000000d0    -0.000000000000000d0    25.155947251439940d0
ATOMIC_SPECIES
Ti1 47.867d00 Ti.UPF
O1 15.999d00 O.UPF
H1 1.008d00 H.UPF
ATOMIC_POSITIONS {crystal}
Ti1      0.000123603383822d0     0.499897385958536d0     0.238512187198856d0
Ti1      0.500142521004230d0     0.250038178055688d0     0.238522014307695d0
O1       0.000095322930372d0     0.000084774873452d0     0.317452257936818d0
O1       0.500112315057126d0     0.000084209992886d0     0.290342007718641d0
O1       0.698270105622955d0     0.250236102495782d0     0.369213011426276d0
O1       0.301995368073695d0     0.249987007385122d0     0.369214717028816d0
Ti1      0.505373294272985d0     0.492375077313081d0     0.364053602656391d0
Ti1      0.005318222216003d0     0.240351008465827d0     0.368495144426695d0
O1       0.494943068937689d0     0.999880948468482d0     0.451347769555450d0
O1       0.999973435586828d0     0.999406949558324d0     0.421777790952544d0
O1       0.191199435352107d0     0.250306126751662d0     0.503490783359909d0
O1       0.798997684333609d0     0.249831285133579d0     0.502391706007282d0
Ti1      0.992413762192835d0     0.501626397876212d0     0.510625714496128d0
Ti1      0.495172862228589d0     0.248982035874171d0     0.496745382214928d0
O1       0.990718528213360d0     0.001055953356190d0     0.585186454574298d0
O1       0.496503702600228d0     0.000796287019912d0     0.554331232961778d0
O1       0.680556484755512d0     0.252885324074394d0     0.640350230834727d0
O1       0.300093736050705d0     0.251968887797450d0     0.638708943993209d0
Ti1      0.494074258762802d0     0.501810584749567d0     0.625449110795805d0
Ti1      0.997609639834742d0     0.233843107523721d0     0.637462373392586d0
O1       0.500093721748991d0     0.000084921243389d0     0.186906639369252d0
O1       0.992736449197868d0     0.002205212022004d0     0.685463334585564d0
O1       0.198268504441574d0     0.250236248865719d0     0.238667392858710d0
O1       0.801993766892314d0     0.249987153755059d0     0.238669098461250d0
Ti1      0.000123603383822d0     0.999897385958536d0     0.238512187198856d0
Ti1      0.500142521004230d0     0.750038178055688d0     0.238522014307695d0
O1       0.000095322930372d0     0.500084774873452d0     0.317452257936818d0
O1       0.500112315057126d0     0.500084209992886d0     0.290342007718641d0
O1       0.698270105622955d0     0.750236102495782d0     0.369213011426276d0
O1       0.301995368073695d0     0.749987007385122d0     0.369214717028816d0
Ti1      0.502040353430493d0     0.991661857234024d0     0.363897280233102d0
Ti1      0.004485166023385d0     0.729953776505568d0     0.372348266969843d0
O1       0.495641411135389d0     0.499669893004762d0     0.451316440203192d0
O1       0.999705694663073d0     0.498065327937784d0     0.420006341378240d0
O1       0.191147750326677d0     0.750137650544224d0     0.503373793286736d0
O1       0.798965213916668d0     0.750458819508333d0     0.502256334056338d0
Ti1      0.997172327863870d0     0.001912328555483d0     0.497718016081762d0
Ti1      0.494948477102946d0     0.748705450807954d0     0.496806279603526d0
O1       0.987760003267170d0     0.501101154522979d0     0.585003706044711d0
O1       0.496185720426433d0     0.500904031104167d0     0.554091233008443d0
O1       0.680610650663285d0     0.750284716209449d0     0.640259016120184d0
O1       0.300301943001445d0     0.750897604354347d0     0.638925692659220d0
Ti1      0.495479038629740d0     0.001773317708126d0     0.625613661441778d0
Ti1      0.996910742032001d0     0.769313897145475d0     0.638207707063023d0
O1       0.500093721748991d0     0.500084921243389d0     0.186906639369252d0
O1       0.984007938492652d0     0.501743309012892d0     0.690605650405792d0
O1       0.198268504441574d0     0.750236248865719d0     0.238667392858710d0
O1       0.801993766892315d0     0.749987153755059d0     0.238669098461250d0
H1       0.052513473121214d0     0.462475560256908d0     0.762997380410162d0
O1       0.137960719113446d0     0.502725137995802d0     0.732994399596851d0
K_POINTS automatic
4 4 1  0 0 0 
