&CONTROL
  calculation='relax',
  prefix='calc',
  pseudo_dir='/storage/coda1/p-amedford6/0/shared/rich_project_chbe-medford/medford-share/data/pseudos_module/espresso/nninc/pbe/van',
  outdir='.',
  tefield=.true.,
  dipfield=.true.,
  tprnfor=.true.,
  disk_io='none',
/
&SYSTEM
  ibrav=0,
  celldm(1)=1.8897261245650618d0,
  nat=57,
  ntyp=5,
  ecutwfc=29.39945797996531d00,
  ecutrho=293.9945797996531d00,
  nbnd=212,
  occupations='smearing',
  smearing='fd',
  degauss=0.007349864494991328d00,
  input_dft='BEEF-vdW',
  edir=3,
  emaxpos=0.9793511222216245d00,
  eopreg=0.025d00,
  eamp=0.0d00,
  nosym=.false.,
  noinv=.false.,
  nosym_evc=.false.,
  no_t_rev=.false.,
/
&ELECTRONS
  diagonalization='david',
  conv_thr=7.349864494991327e-08,
  mixing_beta=0.05d00,
  electron_maxstep=1000,
  startingpot='file',
  startingwfc='atomic',
/
&IONS
  ion_dynamics='ipi',
/
&CELL
  cell_dynamics='ipi',
/
CELL_PARAMETERS alat
    6.579727202290808d0     0.000000000000000d0     0.000000000000000d0
   -0.000775132442404d0     5.961596420607155d0     0.000000000000000d0
    0.000000000000000d0    -0.000000000000000d0    25.155947251439940d0
ATOMIC_SPECIES
Ti1 47.867d00 Ti.UPF
O1 15.999d00 O.UPF
N1 14.007d00 N.UPF
C1 12.011d00 C.UPF
H1 1.008d00 H.UPF
ATOMIC_POSITIONS {crystal}
Ti1      0.000123603383822d0     0.499897385958536d0     0.238512187198856d0
Ti1      0.500142521004230d0     0.250038178055688d0     0.238522014307695d0
O1       0.000095322930372d0     0.000084774873452d0     0.317452257936818d0
O1       0.500112315057126d0     0.000084209992886d0     0.290342007718641d0
O1       0.698270105622955d0     0.250236102495782d0     0.369213011426276d0
O1       0.301995368073695d0     0.249987007385122d0     0.369214717028816d0
Ti1      0.500198167309398d0     0.485761668506182d0     0.364758343030283d0
Ti1      0.000261424674789d0     0.248709163236136d0     0.368424970923767d0
O1       0.502667532568181d0     0.998003192516682d0     0.452558602016976d0
O1       0.001882992193933d0     0.999479849154423d0     0.422099495650131d0
O1       0.197760426494402d0     0.251383038598237d0     0.502633544257744d0
O1       0.806840700507009d0     0.251633736856104d0     0.503230370522663d0
Ti1      0.004356727278726d0     0.500771224451093d0     0.497160120407170d0
Ti1      0.505820912283844d0     0.246701212848933d0     0.498545905765101d0
O1       0.005754295154279d0     0.014411936191900d0     0.583801000349638d0
O1       0.501827811436540d0     0.004352226147296d0     0.557872363182824d0
O1       0.699131417633380d0     0.259730731714636d0     0.642635525891743d0
O1       0.310900490601188d0     0.251976095992661d0     0.644861606918596d0
Ti1      0.504735065346466d0     0.500299368490443d0     0.625385000330715d0
Ti1      0.002168297508108d0     0.242147650968462d0     0.635966572356412d0
O1       0.500093721748991d0     0.000084921243389d0     0.186906639369252d0
O1       0.992147630108641d0     0.975648328609009d0     0.686031484681107d0
O1       0.198268504441574d0     0.250236248865719d0     0.238667392858710d0
O1       0.801993766892314d0     0.249987153755059d0     0.238669098461250d0
Ti1      0.000123603383822d0     0.999897385958536d0     0.238512187198856d0
Ti1      0.500142521004230d0     0.750038178055688d0     0.238522014307695d0
O1       0.000095322930372d0     0.500084774873452d0     0.317452257936818d0
O1       0.500112315057126d0     0.500084209992886d0     0.290342007718641d0
O1       0.698270105622955d0     0.750236102495782d0     0.369213011426276d0
O1       0.301995368073695d0     0.749987007385122d0     0.369214717028816d0
Ti1      0.500001644927041d0     0.985370751416071d0     0.364779031055315d0
Ti1      0.000183276761494d0     0.748948988039575d0     0.368476322807288d0
O1       0.502640183305604d0     0.500947320619289d0     0.452434222027158d0
O1       0.001460782485842d0     0.499964783615161d0     0.422656139091726d0
O1       0.197405828947391d0     0.750475684790325d0     0.504215446647664d0
O1       0.807076510898401d0     0.749882780432727d0     0.504739868399582d0
Ti1      0.005301652745068d0     0.002186069703721d0     0.496717981798267d0
Ti1      0.505736336097885d0     0.748688692293854d0     0.498629685203724d0
O1       0.008615140227933d0     0.493825436355317d0     0.593998543441937d0
O1       0.500084142185343d0     0.497535737511343d0     0.554556519152575d0
O1       0.698717901320028d0     0.739618915438972d0     0.638549902148336d0
O1       0.310315103308903d0     0.747061636124326d0     0.641212640034666d0
Ti1      0.501114252582673d0     0.999740409655959d0     0.631034132207399d0
Ti1      0.003760300345063d0     0.780263105105526d0     0.630142469348288d0
O1       0.500093721748991d0     0.500084921243389d0     0.186906639369252d0
O1       0.198268504441574d0     0.750236248865719d0     0.238667392858710d0
O1       0.801993766892315d0     0.749987153755059d0     0.238669098461250d0
N1       0.220570429191645d0     0.454728790103044d0     0.745756789589955d0
N1       0.013992635616500d0     0.424439158457255d0     0.724313193180232d0
C1       0.296499597555944d0     0.632770779437964d0     0.766358184070986d0
H1       0.176585046434561d0     0.761096058864620d0     0.771795605073996d0
H1       0.307177572630559d0     0.321782850303575d0     0.734079367093433d0
H1       0.932892932516725d0     0.562591322053834d0     0.735363465705621d0
H1       0.951696192035255d0     0.287425811399801d0     0.742437603556204d0
O1       0.562636589648777d0     0.997991666829585d0     0.726879939507901d0
H1       0.709638394160655d0     0.980779502516377d0     0.722175844345120d0
H1       0.514600730047505d0     0.860139494681162d0     0.744709321163005d0
K_POINTS automatic
4 4 1  0 0 0 
