&CONTROL
  calculation='relax',
  prefix='calc',
  pseudo_dir='/storage/coda1/p-amedford6/0/shared/rich_project_chbe-medford/medford-share/data/pseudos_module/espresso/nninc/pbe/van',
  outdir='.',
  tefield=.true.,
  dipfield=.true.,
  tprnfor=.true.,
  disk_io='none',
/
&SYSTEM
  ibrav=0,
  celldm(1)=1.8897261245650618d0,
  nat=52,
  ntyp=5,
  ecutwfc=29.39945797996531d00,
  ecutrho=293.9945797996531d00,
  nbnd=207,
  occupations='smearing',
  smearing='fd',
  degauss=0.007349864494991328d00,
  input_dft='BEEF-vdW',
  edir=3,
  emaxpos=0.973148268282383d00,
  eopreg=0.025d00,
  eamp=0.0d00,
  nosym=.false.,
  noinv=.false.,
  nosym_evc=.false.,
  no_t_rev=.false.,
/
&ELECTRONS
  diagonalization='david',
  conv_thr=7.349864494991327e-08,
  mixing_beta=0.05d00,
  electron_maxstep=1000,
  startingpot='file',
  startingwfc='atomic',
/
&IONS
  ion_dynamics='ipi',
/
&CELL
  cell_dynamics='ipi',
/
CELL_PARAMETERS alat
    6.579727202290808d0     0.000000000000000d0     0.000000000000000d0
   -0.000775132442404d0     5.961596420607155d0     0.000000000000000d0
    0.000000000000000d0    -0.000000000000000d0    25.155947251439940d0
ATOMIC_SPECIES
O1 15.999d00 O.UPF
Ti1 47.867d00 Ti.UPF
N1 14.007d00 N.UPF
H1 1.008d00 H.UPF
C1 12.011d00 C.UPF
ATOMIC_POSITIONS {crystal}
O1       0.500093721748991d0     0.000084921243389d0     0.186906639369252d0
O1       0.500093721748991d0     0.500084921243389d0     0.186906639369252d0
Ti1      0.000123603383822d0     0.499897385958536d0     0.238512187198856d0
Ti1      0.000123603383822d0     0.999897385958536d0     0.238512187198856d0
Ti1      0.500142521004230d0     0.250038178055688d0     0.238522014307695d0
Ti1      0.500142521004230d0     0.750038178055688d0     0.238522014307695d0
O1       0.198268504441574d0     0.250236248865719d0     0.238667392858710d0
O1       0.198268504441574d0     0.750236248865719d0     0.238667392858710d0
O1       0.801993766892314d0     0.249987153755059d0     0.238669098461250d0
O1       0.801993766892315d0     0.749987153755059d0     0.238669098461250d0
O1       0.500112315057126d0     0.000084209992886d0     0.290342007718641d0
O1       0.500112315057126d0     0.500084209992886d0     0.290342007718641d0
O1       0.000095322930372d0     0.000084774873452d0     0.317452257936818d0
O1       0.000095322930372d0     0.500084774873452d0     0.317452257936818d0
Ti1      0.500198167309398d0     0.485761668506182d0     0.364758343030283d0
Ti1      0.500001644927041d0     0.985370751416071d0     0.364779031055315d0
Ti1      0.000261424674789d0     0.248709163236136d0     0.368424970923767d0
Ti1      0.000183276761494d0     0.748948988039575d0     0.368476322807288d0
O1       0.698270105622955d0     0.250236102495782d0     0.369213011426276d0
O1       0.698270105622955d0     0.750236102495782d0     0.369213011426276d0
O1       0.301995368073695d0     0.249987007385122d0     0.369214717028816d0
O1       0.301995368073695d0     0.749987007385122d0     0.369214717028816d0
O1       0.001882992193933d0     0.999479849154423d0     0.422099495650131d0
O1       0.001460782485842d0     0.499964783615161d0     0.422656139091726d0
O1       0.500197822915333d0     0.498688195563969d0     0.450408113919534d0
O1       0.500428222539968d0     0.997620923699495d0     0.450476298139485d0
Ti1      0.487919654382701d0     0.747663120022370d0     0.496366965224264d0
Ti1      0.488184897775616d0     0.247612873477253d0     0.496103345678261d0
Ti1      0.992019981405924d0     0.993294560417537d0     0.502181112000281d0
O1       0.805052969302994d0     0.249952107133426d0     0.501480255305059d0
O1       0.199662808208937d0     0.250261852071794d0     0.501641244898873d0
O1       0.805637288651129d0     0.747585417469603d0     0.502190570150990d0
O1       0.198728640700296d0     0.749364661219612d0     0.502201198081706d0
Ti1      0.992145434629515d0     0.494104603244935d0     0.498726775648116d0
O1       0.501574597318093d0     0.497521247474920d0     0.552976970009604d0
O1       0.502052234196652d0     0.996719879067245d0     0.553041521611168d0
O1       0.997623987478678d0     0.006965086100088d0     0.581951707751634d0
O1       0.001682833295451d0     0.494684145085647d0     0.583961057897667d0
Ti1      0.497586517301017d0     0.494871379148651d0     0.624383447973954d0
Ti1      0.501714670546068d0     0.994133603459946d0     0.624541007824715d0
Ti1      0.997609465285392d0     0.717259200248503d0     0.641992485298745d0
O1       0.312936879487744d0     0.743583439977780d0     0.638512221748471d0
O1       0.691203936357648d0     0.744851304672268d0     0.639154863191660d0
O1       0.312908426068454d0     0.244480411768548d0     0.637389315203919d0
O1       0.691020910953104d0     0.243748522003318d0     0.638413760652001d0
Ti1      0.997998006633873d0     0.242025125929893d0     0.629959223007267d0
O1       0.008146317427492d0     0.995979410857819d0     0.688407944323441d0
N1       0.444415979689732d0     0.038834177193717d0     0.753368357589334d0
H1       0.118897607848866d0     0.004678082713075d0     0.713486089111143d0
H1       0.744841152873607d0     0.207208453413560d0     0.759389897195514d0
C1       0.600083670748570d0     0.126362607520075d0     0.757435182954419d0
O1       0.000764883335828d0     0.490629987899160d0     0.685210410707549d0
K_POINTS automatic
4 4 1  0 0 0 
