&CONTROL
  calculation='relax',
  prefix='calc',
  pseudo_dir='/storage/coda1/p-amedford6/0/shared/rich_project_chbe-medford/medford-share/data/pseudos_module/espresso/nninc/pbe/van',
  outdir='.',
  tefield=.true.,
  dipfield=.true.,
  tprnfor=.true.,
  disk_io='none',
/
&SYSTEM
  ibrav=0,
  celldm(1)=1.8897261245650618d0,
  nat=59,
  ntyp=4,
  ecutwfc=29.39945797996531d00,
  ecutrho=293.9945797996531d00,
  nbnd=230,
  occupations='smearing',
  smearing='fd',
  degauss=0.007349864494991328d00,
  input_dft='BEEF-vdW',
  edir=3,
  emaxpos=0.04092554953130545d00,
  eopreg=0.025d00,
  eamp=0.0d00,
  nosym=.false.,
  noinv=.false.,
  nosym_evc=.false.,
  no_t_rev=.false.,
/
&ELECTRONS
  diagonalization='david',
  conv_thr=7.349864494991327e-08,
  mixing_beta=0.05d00,
  electron_maxstep=1000,
  startingpot='file',
  startingwfc='atomic',
/
&IONS
  ion_dynamics='ipi',
/
&CELL
  cell_dynamics='ipi',
/
CELL_PARAMETERS alat
    6.579727202290808d0     0.000000000000000d0     0.000000000000000d0
   -0.001162698663605d0     8.942394630910734d0     0.000000000000000d0
    0.000000000000000d0    -0.000000000000000d0    25.155947251439940d0
ATOMIC_SPECIES
O1 15.999d00 O.UPF
Ti1 47.867d00 Ti.UPF
H1 1.008d00 H.UPF
N1 14.007d00 N.UPF
ATOMIC_POSITIONS {crystal}
O1       0.000111781329999d0     0.000056172521910d0     0.421099706309416d0
O1       0.503571457963181d0     0.999863385195689d0     0.552864878565941d0
O1       0.001818776638625d0     0.017730808569076d0     0.689620955016486d0
O1       0.000095322930372d0     0.000056516582301d0     0.317452257936818d0
O1       0.499355972410747d0     0.999132585590637d0     0.444832202853274d0
O1       0.997277847427810d0     0.001762113238147d0     0.582833086427295d0
O1       0.301995368073695d0     0.166658004923414d0     0.369214717028816d0
O1       0.796620133041104d0     0.178860668020549d0     0.499723772084035d0
O1       0.307784046813832d0     0.178857713191405d0     0.637557312453857d0
Ti1      0.000141987277103d0     0.166692151230444d0     0.369279712898471d0
Ti1      0.499671443064288d0     0.151428287668459d0     0.497025791844976d0
Ti1      0.015799157971409d0     0.165548452212962d0     0.631189534168701d0
O1       0.698270105622955d0     0.166824068330521d0     0.369213011426276d0
O1       0.204385206950331d0     0.181446714916176d0     0.501062843190101d0
O1       0.688056387502005d0     0.170838489347022d0     0.638778186292297d0
Ti1      0.500123069656695d0     0.333264956499010d0     0.369269885789632d0
Ti1      0.998848917394560d0     0.317047644348568d0     0.495356876492923d0
Ti1      0.510953149517632d0     0.328548710646458d0     0.624557071766749d0
O1       0.000111781329999d0     0.333389505855244d0     0.421099706309416d0
O1       0.505509015112697d0     0.334190783371227d0     0.553042008270760d0
O1       0.000095322930372d0     0.333389849915635d0     0.317452257936818d0
O1       0.499270310782414d0     0.331931448660897d0     0.444922177403780d0
O1       0.990890253919693d0     0.335625513623315d0     0.583930375355353d0
O1       0.301995368073695d0     0.499991338256748d0     0.369214717028816d0
O1       0.795850625977560d0     0.512402527152071d0     0.499746155850761d0
O1       0.299021389311033d0     0.513991060775646d0     0.635868913958387d0
Ti1      0.000141987277103d0     0.500025484563778d0     0.369279712898471d0
Ti1      0.498849555599080d0     0.485094962549062d0     0.497023007752968d0
Ti1      0.992320845962936d0     0.482032421476852d0     0.637572351227202d0
O1       0.698270105622955d0     0.500157401663855d0     0.369213011426276d0
O1       0.202999384607876d0     0.513098584421788d0     0.501014022161140d0
O1       0.680492560515447d0     0.511569894058215d0     0.641311810284543d0
Ti1      0.500123069656695d0     0.666598289832344d0     0.369269885789632d0
Ti1      0.998449404917353d0     0.649661177856289d0     0.495693048773696d0
Ti1      0.485495895961106d0     0.660645228213803d0     0.624634732901475d0
O1       0.000111781329999d0     0.666722839188577d0     0.421099706309416d0
O1       0.500910598553515d0     0.666659667197002d0     0.552874620803202d0
O1       0.998718303197182d0     0.674552876803941d0     0.688217703462516d0
O1       0.000095322930372d0     0.666723183248968d0     0.317452257936818d0
O1       0.499073601513552d0     0.665072290165586d0     0.444902404932969d0
O1       0.992761071922163d0     0.678735078770902d0     0.581312557793298d0
O1       0.301995368073695d0     0.833324671590081d0     0.369214717028816d0
O1       0.795105172127853d0     0.846489796197833d0     0.499347583677280d0
O1       0.303049759034750d0     0.844709709233616d0     0.637789396191477d0
Ti1      0.000141987277103d0     0.833358817897111d0     0.369279712898471d0
Ti1      0.498793119649616d0     0.818050168370573d0     0.497154129480607d0
Ti1      0.000134084794533d0     0.825584821549413d0     0.628103565981461d0
O1       0.698270105622955d0     0.833490734997188d0     0.369213011426276d0
O1       0.204427608834414d0     0.847648528623707d0     0.500098730358186d0
O1       0.692640624259880d0     0.847015094807562d0     0.641831648391072d0
Ti1      0.500123069656695d0     0.999931623165677d0     0.369269885789632d0
Ti1      0.998413835842158d0     0.983326956055714d0     0.495388834957487d0
Ti1      0.505178735479726d0     0.995295146424307d0     0.624590838906322d0
H1       0.887323197554630d0     0.685513814230887d0     0.712910276933598d0
H1       0.876532057058765d0     0.020128238468054d0     0.709668310635666d0
H1       0.007522315733568d0     0.404300703209126d0     0.764398841125792d0
N1       0.974377494606924d0     0.312181989765707d0     0.742223542936787d0
N1       0.994697334595224d0     0.340338292360391d0     0.688673594552864d0
H1       0.060193290167737d0     0.223331853171769d0     0.753980285919058d0
K_POINTS automatic
4 4 1  0 0 0 
