&CONTROL
  calculation='relax',
  prefix='calc',
  pseudo_dir='/storage/coda1/p-amedford6/0/shared/rich_project_chbe-medford/medford-share/data/pseudos_module/espresso/nninc/pbe/van',
  outdir='.',
  tefield=.true.,
  dipfield=.true.,
  tprnfor=.true.,
  disk_io='none',
/
&SYSTEM
  ibrav=0,
  celldm(1)=1.8897261245650618d0,
  nat=54,
  ntyp=5,
  ecutwfc=29.39945797996531d00,
  ecutrho=293.9945797996531d00,
  nbnd=208,
  occupations='smearing',
  smearing='fd',
  degauss=0.007349864494991328d00,
  input_dft='BEEF-vdW',
  edir=3,
  emaxpos=0.001192160094300121d00,
  eopreg=0.025d00,
  eamp=0.0d00,
  nosym=.false.,
  noinv=.false.,
  nosym_evc=.false.,
  no_t_rev=.false.,
/
&ELECTRONS
  diagonalization='david',
  conv_thr=7.349864494991327e-08,
  mixing_beta=0.05d00,
  electron_maxstep=1000,
  startingwfc='atomic',
/
&IONS
  ion_dynamics='ipi',
/
&CELL
  cell_dynamics='ipi',
/
CELL_PARAMETERS alat
    6.579727202290808d0     0.000000000000000d0     0.000000000000000d0
   -0.000775132442404d0     5.961596420607155d0     0.000000000000000d0
    0.000000000000000d0    -0.000000000000000d0    25.155947251439940d0
ATOMIC_SPECIES
Ti1 47.867d00 Ti.UPF
O1 15.999d00 O.UPF
N1 14.007d00 N.UPF
C1 12.011d00 C.UPF
H1 1.008d00 H.UPF
ATOMIC_POSITIONS {crystal}
Ti1      0.000123603383822d0     0.499897385958536d0     0.238512187198856d0
Ti1      0.500142521004230d0     0.250038178055688d0     0.238522014307695d0
O1       0.000095322930372d0     0.000084774873452d0     0.317452257936818d0
O1       0.500112315057126d0     0.000084209992886d0     0.290342007718641d0
O1       0.698270105622955d0     0.250236102495782d0     0.369213011426276d0
O1       0.301995368073695d0     0.249987007385122d0     0.369214717028816d0
Ti1      0.500198167309398d0     0.485761668506182d0     0.364758343030283d0
Ti1      0.000261424674789d0     0.248709163236136d0     0.368424970923767d0
O1       0.500716995334497d0     0.999860316361657d0     0.449544004007028d0
O1       0.001882992193933d0     0.999479849154423d0     0.422099495650131d0
O1       0.196117401060388d0     0.249863356478202d0     0.501543575430302d0
O1       0.800872554335658d0     0.250432383815975d0     0.501107081116388d0
Ti1      0.014971541355590d0     0.496633750942328d0     0.502461767903532d0
Ti1      0.518641170607990d0     0.247948626525758d0     0.495453688393013d0
O1       0.000675288890205d0     0.001725688210352d0     0.580450172035482d0
O1       0.499296942832118d0     0.001476074496590d0     0.551932060136362d0
O1       0.686351782274391d0     0.258069350527277d0     0.637259095900248d0
O1       0.312332486841507d0     0.258886619076552d0     0.637979321684588d0
Ti1      0.496010742409186d0     0.507722438547495d0     0.623413615154100d0
Ti1      0.996973576168528d0     0.267444920313778d0     0.631568255867369d0
O1       0.500093721748991d0     0.000084921243389d0     0.186906639369252d0
O1       0.998020015274581d0     0.012095044199899d0     0.683728560131763d0
O1       0.198268504441574d0     0.250236248865719d0     0.238667392858710d0
O1       0.801993766892314d0     0.249987153755059d0     0.238669098461250d0
Ti1      0.000123603383822d0     0.999897385958536d0     0.238512187198856d0
Ti1      0.500142521004230d0     0.750038178055688d0     0.238522014307695d0
O1       0.000095322930372d0     0.500084774873452d0     0.317452257936818d0
O1       0.500112315057126d0     0.500084209992886d0     0.290342007718641d0
O1       0.698270105622955d0     0.750236102495782d0     0.369213011426276d0
O1       0.301995368073695d0     0.749987007385122d0     0.369214717028816d0
Ti1      0.500001644927041d0     0.985370751416071d0     0.364779031055315d0
Ti1      0.000183276761494d0     0.748948988039575d0     0.368476322807288d0
O1       0.500824604016124d0     0.499451027158596d0     0.449502959661648d0
O1       0.001460782485842d0     0.499964783615161d0     0.422656139091726d0
O1       0.195710922032899d0     0.748922292968807d0     0.501368138884379d0
O1       0.801372985929566d0     0.750260809694946d0     0.500904047357403d0
Ti1      0.013968884832327d0     0.995641477142613d0     0.503244365436824d0
Ti1      0.519329340527114d0     0.747388020973573d0     0.495549995014141d0
O1       0.001406098451435d0     0.501356631576089d0     0.581600365198691d0
O1       0.498664260659142d0     0.504127025866365d0     0.551646773335556d0
O1       0.685381244248626d0     0.757426892486208d0     0.638726863977551d0
O1       0.312374979147168d0     0.756835669120764d0     0.638926275616373d0
Ti1      0.501321256740898d0     0.007363417107479d0     0.623777094680045d0
Ti1      0.999840621446212d0     0.779678068507648d0     0.640045167583295d0
O1       0.500093721748991d0     0.500084921243389d0     0.186906639369252d0
O1       0.198268504441574d0     0.750236248865719d0     0.238667392858710d0
O1       0.801993766892315d0     0.749987153755059d0     0.238669098461250d0
N1       0.963315821615085d0     0.472500257262359d0     0.739615237805039d0
N1       0.992681451269900d0     0.501458428969236d0     0.688341720794244d0
C1       0.020882361826995d0     0.644052639154547d0     0.778136329511001d0
H1       0.979541631701205d0     0.807433493418413d0     0.762303686549575d0
H1       0.941055758660052d0     0.614577945375498d0     0.815477680819348d0
H1       0.185660824660902d0     0.641953183958920d0     0.785134416597353d0
H1       0.967344340375242d0     0.309646123827722d0     0.751920885650126d0
K_POINTS automatic
4 4 1  0 0 0 
