&CONTROL
  calculation='relax',
  prefix='calc',
  pseudo_dir='/storage/coda1/p-amedford6/0/shared/rich_project_chbe-medford/medford-share/data/pseudos_module/espresso/nninc/pbe/van',
  outdir='.',
  tefield=.true.,
  dipfield=.true.,
  tprnfor=.true.,
  disk_io='none',
/
&SYSTEM
  ibrav=0,
  celldm(1)=1.8897261245650618d0,
  nat=55,
  ntyp=5,
  ecutwfc=29.39945797996531d00,
  ecutrho=293.9945797996531d00,
  nbnd=208,
  occupations='smearing',
  smearing='fd',
  degauss=0.007349864494991328d00,
  input_dft='BEEF-vdW',
  edir=3,
  emaxpos=0.9999159360440204d00,
  eopreg=0.025d00,
  eamp=0.0d00,
  nosym=.false.,
  noinv=.false.,
  nosym_evc=.false.,
  no_t_rev=.false.,
/
&ELECTRONS
  diagonalization='david',
  conv_thr=7.349864494991327e-08,
  mixing_beta=0.05d00,
  electron_maxstep=1000,
  startingwfc='atomic',
/
&IONS
  ion_dynamics='ipi',
/
&CELL
  cell_dynamics='ipi',
/
CELL_PARAMETERS alat
    6.579727202290808d0     0.000000000000000d0     0.000000000000000d0
   -0.000775132442404d0     5.961596420607155d0     0.000000000000000d0
    0.000000000000000d0    -0.000000000000000d0    25.155947251439940d0
ATOMIC_SPECIES
Ti1 47.867d00 Ti.UPF
O1 15.999d00 O.UPF
N1 14.007d00 N.UPF
C1 12.011d00 C.UPF
H1 1.008d00 H.UPF
ATOMIC_POSITIONS {crystal}
Ti1      0.000123603383822d0     0.499897385958536d0     0.238512187198856d0
Ti1      0.500142521004230d0     0.250038178055688d0     0.238522014307695d0
O1       0.000095322930372d0     0.000084774873452d0     0.317452257936818d0
O1       0.500112315057126d0     0.000084209992886d0     0.290342007718641d0
O1       0.698270105622955d0     0.250236102495782d0     0.369213011426276d0
O1       0.301995368073695d0     0.249987007385122d0     0.369214717028816d0
Ti1      0.500198167309398d0     0.485761668506182d0     0.364758343030283d0
Ti1      0.000261424674789d0     0.248709163236136d0     0.368424970923767d0
O1       0.509407404426527d0     0.000296142925906d0     0.450563338715691d0
O1       0.001882992193933d0     0.999479849154423d0     0.422099495650131d0
O1       0.209227143933444d0     0.250337664943453d0     0.500966526476047d0
O1       0.815064585191247d0     0.248761779446800d0     0.502414937052683d0
Ti1      0.002669702640413d0     0.495281305628938d0     0.501840073858187d0
Ti1      0.498771423245106d0     0.250462281243293d0     0.496282120576164d0
O1       0.017359215407696d0     0.003852475964915d0     0.583086001827358d0
O1       0.513233086262772d0     0.001614043773029d0     0.553843056871409d0
O1       0.708895493768883d0     0.257759022286216d0     0.639238378260956d0
O1       0.331879742347876d0     0.254096234715263d0     0.638690260160065d0
Ti1      0.513663585916777d0     0.504185620354503d0     0.624570301858921d0
Ti1      0.008165190762993d0     0.258796052302577d0     0.630528416699756d0
O1       0.500093721748991d0     0.000084921243389d0     0.186906639369252d0
O1       0.016904673945956d0     0.006137998494986d0     0.685213446554650d0
O1       0.198268504441574d0     0.250236248865719d0     0.238667392858710d0
O1       0.801993766892314d0     0.249987153755059d0     0.238669098461250d0
Ti1      0.000123603383822d0     0.999897385958536d0     0.238512187198856d0
Ti1      0.500142521004230d0     0.750038178055688d0     0.238522014307695d0
O1       0.000095322930372d0     0.500084774873452d0     0.317452257936818d0
O1       0.500112315057126d0     0.500084209992886d0     0.290342007718641d0
O1       0.698270105622955d0     0.750236102495782d0     0.369213011426276d0
O1       0.301995368073695d0     0.749987007385122d0     0.369214717028816d0
Ti1      0.500001644927041d0     0.985370751416071d0     0.364779031055315d0
Ti1      0.000183276761494d0     0.748948988039575d0     0.368476322807288d0
O1       0.509562262455843d0     0.501116018900817d0     0.450525114284538d0
O1       0.001460782485842d0     0.499964783615161d0     0.422656139091726d0
O1       0.208726130388802d0     0.751425526910389d0     0.501409034776791d0
O1       0.815398401911440d0     0.750529282411419d0     0.502871012937250d0
Ti1      0.001634548356107d0     0.994882928668184d0     0.499362137618079d0
Ti1      0.498338158565831d0     0.750496113238645d0     0.496451480647424d0
O1       0.014689817230182d0     0.492640714921013d0     0.582578320409893d0
O1       0.511942969909383d0     0.502400704579218d0     0.553092929720268d0
O1       0.707339421044098d0     0.750672237102882d0     0.640818692656652d0
O1       0.330329296568409d0     0.755081604130015d0     0.638691043825359d0
Ti1      0.513578658711365d0     0.003657403421755d0     0.625382006326602d0
Ti1      0.012767516661697d0     0.784751217890220d0     0.640533474310815d0
O1       0.500093721748991d0     0.500084921243389d0     0.186906639369252d0
O1       0.198268504441574d0     0.750236248865719d0     0.238667392858710d0
O1       0.801993766892315d0     0.749987153755059d0     0.238669098461250d0
N1       0.039124593488553d0     0.500406976804746d0     0.691472013973709d0
C1       0.083413630265400d0     0.490349000235720d0     0.740198445078096d0
H1       0.117863504609363d0     0.641469291899641d0     0.763483649181748d0
H1       0.089934633937293d0     0.329882080646887d0     0.761362356908328d0
N1       0.642241982655386d0     0.752969589345872d0     0.786183299104100d0
H1       0.745596474361124d0     0.875183137407415d0     0.794154924070764d0
H1       0.683496585127093d0     0.690801438619193d0     0.750276244249325d0
H1       0.667944004414410d0     0.628637838683896d0     0.812925232718788d0
K_POINTS automatic
4 4 1  0 0 0 
