&CONTROL
  calculation='relax',
  prefix='calc',
  pseudo_dir='/storage/coda1/p-amedford6/0/shared/rich_project_chbe-medford/medford-share/data/pseudos_module/espresso/nninc/pbe/van',
  outdir='.',
  tefield=.true.,
  dipfield=.true.,
  tprnfor=.true.,
  disk_io='none',
/
&SYSTEM
  ibrav=0,
  celldm(1)=1.8897261245650618d0,
  nat=52,
  ntyp=4,
  ecutwfc=29.39945797996531d00,
  ecutrho=293.9945797996531d00,
  nbnd=205,
  occupations='smearing',
  smearing='fd',
  degauss=0.007349864494991328d00,
  input_dft='BEEF-vdW',
  edir=3,
  emaxpos=0.9610682940281225d00,
  eopreg=0.025d00,
  eamp=0.0d00,
  nosym=.false.,
  noinv=.false.,
  nosym_evc=.false.,
  no_t_rev=.false.,
/
&ELECTRONS
  diagonalization='david',
  conv_thr=7.349864494991327e-08,
  mixing_beta=0.05d00,
  electron_maxstep=1000,
  startingwfc='atomic',
/
&IONS
  ion_dynamics='ipi',
/
&CELL
  cell_dynamics='ipi',
/
CELL_PARAMETERS alat
    6.579727202290808d0     0.000000000000000d0     0.000000000000000d0
   -0.000775132442404d0     5.961596420607155d0     0.000000000000000d0
    0.000000000000000d0    -0.000000000000000d0    25.155947251439940d0
ATOMIC_SPECIES
O1 15.999d00 O.UPF
Ti1 47.867d00 Ti.UPF
H1 1.008d00 H.UPF
C1 12.011d00 C.UPF
ATOMIC_POSITIONS {crystal}
O1       0.500093721748991d0     0.000084921243389d0     0.186906639369252d0
O1       0.500093721748991d0     0.500084921243389d0     0.186906639369252d0
Ti1      0.000123603383822d0     0.499897385958537d0     0.238512187198856d0
Ti1      0.000123603383822d0     0.999897385958537d0     0.238512187198856d0
Ti1      0.500142521004230d0     0.250038178055688d0     0.238522014307695d0
Ti1      0.500142521004230d0     0.750038178055688d0     0.238522014307695d0
O1       0.198268504441574d0     0.250236248865719d0     0.238667392858710d0
O1       0.198268504441574d0     0.750236248865719d0     0.238667392858710d0
O1       0.801993766892314d0     0.249987153755059d0     0.238669098461250d0
O1       0.801993766892315d0     0.749987153755059d0     0.238669098461250d0
O1       0.500112315057126d0     0.000084209992886d0     0.290342007718641d0
O1       0.500112315057126d0     0.500084209992886d0     0.290342007718641d0
O1       0.000095322930372d0     0.000084774873452d0     0.317452257936818d0
O1       0.000095322930372d0     0.500084774873452d0     0.317452257936818d0
Ti1      0.500136883789137d0     0.992159981597021d0     0.364933608947644d0
Ti1      0.506181261264816d0     0.492315351872934d0     0.364395878832864d0
Ti1      0.004830884495168d0     0.247359762460993d0     0.367745116950642d0
Ti1      0.003631303749407d0     0.739561932352214d0     0.370495381044575d0
O1       0.698270105622955d0     0.250236102495782d0     0.369213011426276d0
O1       0.698270105622955d0     0.750236102495782d0     0.369213011426276d0
O1       0.301995368073695d0     0.249987007385122d0     0.369214717028816d0
O1       0.301995368073695d0     0.749987007385122d0     0.369214717028816d0
O1       0.997894567902203d0     0.999710877874622d0     0.420709299193757d0
O1       0.999887014210042d0     0.501045482349711d0     0.421068355873078d0
O1       0.489162714112472d0     0.502080186806377d0     0.450441611694612d0
O1       0.488942965571245d0     0.999575112924929d0     0.450822182109321d0
Ti1      0.990174339841029d0     0.005390039940518d0     0.495076868533225d0
Ti1      0.484819062692671d0     0.271317861615139d0     0.500957777560262d0
Ti1      0.483822341130108d0     0.758999287864472d0     0.495322324157847d0
Ti1      0.980366303534212d0     0.504427361526964d0     0.503148292542867d0
O1       0.796064156711524d0     0.253226867685303d0     0.499811254433061d0
O1       0.795530830041325d0     0.747268012010254d0     0.500132336976854d0
O1       0.184435602612136d0     0.245967359639249d0     0.503421376268685d0
O1       0.184559117573527d0     0.753560587286765d0     0.503693186086488d0
O1       0.485793998783784d0     0.492476234295490d0     0.553752866305742d0
O1       0.507904658651223d0     0.999227076646675d0     0.552587559675133d0
O1       0.958241243986858d0     0.000461724035760d0     0.581612759835827d0
O1       0.969938940054831d0     0.499891611844930d0     0.585942885488720d0
Ti1      0.471198813855275d0     0.500734643992765d0     0.634254805883047d0
Ti1      0.484200674350520d0     0.000775632798184d0     0.623029806190198d0
Ti1      0.979611242165315d0     0.227049338608924d0     0.632594144131625d0
Ti1      0.980610225766541d0     0.766248114740624d0     0.630094583822551d0
O1       0.282009042926595d0     0.767519815584054d0     0.628075048898032d0
O1       0.280767985563301d0     0.230241139393794d0     0.628943256532538d0
O1       0.667027770650936d0     0.258046523032453d0     0.644903165639422d0
O1       0.665755090680877d0     0.741521312355507d0     0.644379035269028d0
O1       0.984706074589677d0     0.997640041588361d0     0.681236965163503d0
O1       0.069044834536924d0     0.499881081694670d0     0.694585014077552d0
H1       0.984935677266515d0     0.506072087668435d0     0.726349241147396d0
C1       0.292636521580090d0     0.500516071104644d0     0.710829621550060d0
H1       0.312195588144746d0     0.350155661676715d0     0.735229948686993d0
H1       0.312476217076994d0     0.652166105418557d0     0.734760217379670d0
K_POINTS automatic
4 4 1  0 0 0 
