&CONTROL
  calculation='relax',
  prefix='calc',
  pseudo_dir='/storage/coda1/p-amedford6/0/shared/rich_project_chbe-medford/medford-share/data/pseudos_module/espresso/nninc/pbe/van',
  outdir='.',
  tefield=.true.,
  dipfield=.true.,
  tprnfor=.true.,
  disk_io='none',
/
&SYSTEM
  ibrav=0,
  celldm(1)=1.8897261245650618d0,
  nat=53,
  ntyp=4,
  ecutwfc=29.39945797996531d00,
  ecutrho=293.9945797996531d00,
  nbnd=206,
  occupations='smearing',
  smearing='fd',
  degauss=0.007349864494991328d00,
  input_dft='BEEF-vdW',
  edir=3,
  emaxpos=0.9912747628404197d00,
  eopreg=0.025d00,
  eamp=0.0d00,
  nosym=.false.,
  noinv=.false.,
  nosym_evc=.false.,
  no_t_rev=.false.,
/
&ELECTRONS
  diagonalization='david',
  conv_thr=7.349864494991327e-08,
  mixing_beta=0.05d00,
  electron_maxstep=1000,
  startingwfc='atomic',
/
&IONS
  ion_dynamics='ipi',
/
&CELL
  cell_dynamics='ipi',
/
CELL_PARAMETERS alat
    6.579727202290808d0     0.000000000000000d0     0.000000000000000d0
   -0.000775132442404d0     5.961596420607155d0     0.000000000000000d0
    0.000000000000000d0    -0.000000000000000d0    25.155947251439940d0
ATOMIC_SPECIES
Ti1 47.867d00 Ti.UPF
O1 15.999d00 O.UPF
C1 12.011d00 C.UPF
H1 1.008d00 H.UPF
ATOMIC_POSITIONS {crystal}
Ti1      0.000123603383822d0     0.499897385958537d0     0.238512187198856d0
Ti1      0.500142521004230d0     0.250038178055688d0     0.238522014307695d0
O1       0.000095322930372d0     0.000084774873452d0     0.317452257936818d0
O1       0.500112315057126d0     0.000084209992886d0     0.290342007718641d0
O1       0.698270105622955d0     0.250236102495782d0     0.369213011426276d0
O1       0.301995368073695d0     0.249987007385122d0     0.369214717028816d0
Ti1      0.505009845832113d0     0.497534366586571d0     0.363924526790542d0
Ti1      0.006813702401769d0     0.250000207531260d0     0.368552582030265d0
O1       0.498142217509531d0     0.003432407957727d0     0.451894166895697d0
O1       0.999934263352563d0     0.001797612658310d0     0.421855654894312d0
O1       0.193716402844773d0     0.256902044054484d0     0.502618328110691d0
O1       0.802569187664241d0     0.256926451301820d0     0.502378234297790d0
Ti1      0.996591538810007d0     0.503720665681398d0     0.496917236623797d0
Ti1      0.495889727867236d0     0.255380525755770d0     0.497683842136857d0
O1       0.997153073085568d0     0.024932438850953d0     0.583990653383654d0
O1       0.498114555510871d0     0.008581094656876d0     0.555891301758643d0
O1       0.689244875368057d0     0.257750301385459d0     0.644230723969090d0
O1       0.306073797314747d0     0.257474092971233d0     0.643955625513576d0
Ti1      0.497255982399017d0     0.505858893063919d0     0.626260211459325d0
Ti1      0.997169417962805d0     0.240611042057167d0     0.639145007753273d0
O1       0.500093721748991d0     0.000084921243389d0     0.186906639369252d0
O1       0.997917627620083d0     0.985461314890717d0     0.684729302516042d0
O1       0.198268504441574d0     0.250236248865719d0     0.238667392858710d0
O1       0.801993766892314d0     0.249987153755059d0     0.238669098461250d0
Ti1      0.000123603383822d0     0.999897385958537d0     0.238512187198856d0
Ti1      0.500142521004230d0     0.750038178055688d0     0.238522014307695d0
O1       0.000095322930372d0     0.500084774873452d0     0.317452257936818d0
O1       0.500112315057126d0     0.500084209992886d0     0.290342007718641d0
O1       0.698270105622955d0     0.750236102495782d0     0.369213011426276d0
O1       0.301995368073695d0     0.749987007385122d0     0.369214717028816d0
Ti1      0.505191385004556d0     0.997826470160276d0     0.364018834099909d0
Ti1      0.006875415624230d0     0.749228291290857d0     0.367466135901786d0
O1       0.498177800353116d0     0.505979782224613d0     0.451862629875804d0
O1       0.999667207452299d0     0.502996529383875d0     0.422450949384368d0
O1       0.193274718620633d0     0.755448237627932d0     0.504434376153374d0
O1       0.803136751948281d0     0.755586500768435d0     0.504148055822421d0
Ti1      0.997042979875434d0     0.007369078384722d0     0.496057199868193d0
Ti1      0.495879130621395d0     0.754822122960196d0     0.497545778274388d0
O1       0.997612108155807d0     0.499460881618164d0     0.595121740445378d0
O1       0.498067922887168d0     0.502716799046684d0     0.555001171322191d0
O1       0.688831349457630d0     0.756096129827636d0     0.640056555467823d0
O1       0.306306133509616d0     0.756220178338986d0     0.639959427809318d0
Ti1      0.497367526147066d0     0.006669185818041d0     0.627432502140959d0
Ti1      0.996980960555787d0     0.782569275459878d0     0.627935577404871d0
O1       0.500093721748991d0     0.500084921243389d0     0.186906639369252d0
O1       0.198268504441574d0     0.750236248865719d0     0.238667392858710d0
O1       0.801993766892315d0     0.749987153755059d0     0.238669098461250d0
C1       0.996821491011764d0     0.430893548326800d0     0.773761965286970d0
O1       0.001628529640692d0     0.517394488783641d0     0.720528238190156d0
H1       0.995457913813441d0     0.249834850306061d0     0.770333246513085d0
H1       0.002856937348488d0     0.680863894625826d0     0.722707598048078d0
H1       0.131927231530028d0     0.483985641934614d0     0.795642886311587d0
H1       0.858931336521446d0     0.486389905715998d0     0.794352465173742d0
K_POINTS automatic
4 4 1  0 0 0 
