 O 
 1.0000000000000000
     6.6229779999999998    0.0000000000000000    0.0000000000000000
     0.0000000000000000    6.6229779999999998    0.0000000000000000
     0.0000000000000000    0.0000000000000000    6.6229779999999998
   2
Cartesian
  3.3114889999999999  3.3114889999999999  3.9241734241293837
  3.3114889999999999  3.3114889999999999  2.6988045758706161
