&CONTROL
  calculation='relax',
  prefix='calc',
  pseudo_dir='/storage/coda1/p-amedford6/0/shared/rich_project_chbe-medford/medford-share/data/pseudos_module/espresso/nninc/pbe/van',
  outdir='.',
  tefield=.true.,
  dipfield=.true.,
  tprnfor=.true.,
  disk_io='none',
/
&SYSTEM
  ibrav=0,
  celldm(1)=1.8897261245650618d0,
  nat=55,
  ntyp=5,
  ecutwfc=29.39945797996531d00,
  ecutrho=293.9945797996531d00,
  nbnd=213,
  occupations='smearing',
  smearing='fd',
  degauss=0.007349864494991328d00,
  input_dft='BEEF-vdW',
  edir=3,
  emaxpos=0.9976801420149617d00,
  eopreg=0.025d00,
  eamp=0.0d00,
  nosym=.false.,
  noinv=.false.,
  nosym_evc=.false.,
  no_t_rev=.false.,
/
&ELECTRONS
  diagonalization='david',
  conv_thr=7.349864494991327e-08,
  mixing_beta=0.05d00,
  electron_maxstep=1000,
  startingpot='file',
  startingwfc='atomic',
/
&IONS
  ion_dynamics='ipi',
/
&CELL
  cell_dynamics='ipi',
/
CELL_PARAMETERS alat
    6.579727202290808d0     0.000000000000000d0     0.000000000000000d0
   -0.000775132442404d0     5.961596420607155d0     0.000000000000000d0
    0.000000000000000d0    -0.000000000000000d0    25.155947251439940d0
ATOMIC_SPECIES
C1 12.011d00 C.UPF
H1 1.008d00 H.UPF
O1 15.999d00 O.UPF
Ti1 47.867d00 Ti.UPF
N1 14.007d00 N.UPF
ATOMIC_POSITIONS {crystal}
C1       0.972126740018361d0     0.502361538264098d0     0.743429827839988d0
H1       0.959367837030061d0     0.662512542977775d0     0.763960241131965d0
H1       0.956707725968164d0     0.344283906451464d0     0.764729722780940d0
O1       0.500093721748991d0     0.000084921243389d0     0.186906639369252d0
O1       0.500093721748991d0     0.500084921243389d0     0.186906639369252d0
O1       0.198268504441574d0     0.250236248865719d0     0.238667392858710d0
O1       0.198268504441574d0     0.750236248865719d0     0.238667392858710d0
O1       0.801993766892314d0     0.249987153755059d0     0.238669098461250d0
O1       0.801993766892315d0     0.749987153755059d0     0.238669098461250d0
O1       0.500112315057126d0     0.000084209992886d0     0.290342007718641d0
O1       0.500112315057126d0     0.500084209992886d0     0.290342007718641d0
O1       0.000095322930372d0     0.000084774873452d0     0.317452257936818d0
O1       0.000095322930372d0     0.500084774873452d0     0.317452257936818d0
O1       0.698270105622955d0     0.250236102495782d0     0.369213011426276d0
O1       0.698270105622955d0     0.750236102495782d0     0.369213011426276d0
O1       0.301995368073695d0     0.249987007385122d0     0.369214717028816d0
O1       0.301995368073695d0     0.749987007385122d0     0.369214717028816d0
O1       0.002034604588855d0     0.501918693182974d0     0.420009126565899d0
O1       0.002192965131067d0     0.001535809005422d0     0.420933238040198d0
O1       0.503389034670061d0     0.497759051207950d0     0.449605735516036d0
O1       0.503506131392243d0     0.004089674320299d0     0.450987307754280d0
O1       0.810790910315901d0     0.251111571126769d0     0.502235555921145d0
O1       0.811595099533024d0     0.751625614528021d0     0.502451519394207d0
O1       0.198210061597354d0     0.252294917948708d0     0.502389289763578d0
O1       0.197749884326033d0     0.750278854277463d0     0.502573810348435d0
O1       0.507645647329721d0     0.498961996808924d0     0.552751139209940d0
O1       0.505047493554793d0     0.990498032036456d0     0.555333546410567d0
O1       0.006326875195450d0     0.999039721005876d0     0.583525288371322d0
O1       0.003718378659369d0     0.500112824051262d0     0.585229390507916d0
O1       0.700047145906595d0     0.741100663223559d0     0.640822419985188d0
O1       0.700430907670355d0     0.253020773176806d0     0.639877028925211d0
O1       0.312018487427775d0     0.736314295248446d0     0.638167235568662d0
O1       0.312582871681206d0     0.258022749693210d0     0.638312414580414d0
O1       0.013512762599141d0     0.999716084390137d0     0.683461606693232d0
O1       0.004075054263623d0     0.499770356873688d0     0.694147800254284d0
Ti1      0.000123603383822d0     0.499897385958537d0     0.238512187198856d0
Ti1      0.000123603383822d0     0.999897385958537d0     0.238512187198856d0
Ti1      0.500142521004230d0     0.250038178055688d0     0.238522014307695d0
Ti1      0.500142521004230d0     0.750038178055688d0     0.238522014307695d0
Ti1      0.504219786638601d0     0.014161516232039d0     0.364541504589368d0
Ti1      0.505723491453831d0     0.514431023658599d0     0.365697324993646d0
Ti1      0.007069354215283d0     0.758424561267718d0     0.368238627656861d0
Ti1      0.006263478337908d0     0.269312550483162d0     0.371680912767362d0
Ti1      0.504894295332076d0     0.782381113893625d0     0.504519859481406d0
Ti1      0.504598391023069d0     0.265058834419221d0     0.494318908317497d0
Ti1      0.003340025714210d0     0.006487253206958d0     0.495900201510110d0
Ti1      0.005655211925383d0     0.507151350958889d0     0.507896309369249d0
Ti1      0.505875937802330d0     0.493659753489934d0     0.623378591154219d0
Ti1      0.519518488511393d0     0.993328057874638d0     0.646324859502172d0
Ti1      0.013161790249459d0     0.230414439753112d0     0.633025392331108d0
Ti1      0.016147203993946d0     0.767317214213446d0     0.633904462804012d0
N1       0.551757955495663d0     0.539406531121051d0     0.808453644660671d0
N1       0.413747699617635d0     0.443741584405146d0     0.797807222916588d0
O1       0.485329257360620d0     0.994114213706845d0     0.719267894145669d0
H1       0.346550277733110d0     0.015941758113251d0     0.731397314304371d0
K_POINTS automatic
4 4 1  0 0 0 
