&CONTROL
  calculation='relax',
  prefix='calc',
  pseudo_dir='/storage/coda1/p-amedford6/0/shared/rich_project_chbe-medford/medford-share/data/pseudos_module/espresso/nninc/pbe/van',
  outdir='.',
  tefield=.true.,
  dipfield=.true.,
  tprnfor=.true.,
  disk_io='none',
/
&SYSTEM
  ibrav=0,
  celldm(1)=1.8897261245650618d0,
  nat=55,
  ntyp=5,
  ecutwfc=29.39945797996531d00,
  ecutrho=293.9945797996531d00,
  nbnd=211,
  occupations='smearing',
  smearing='fd',
  degauss=0.007349864494991328d00,
  input_dft='BEEF-vdW',
  edir=3,
  emaxpos=0.0020449950505949666d00,
  eopreg=0.025d00,
  eamp=0.0d00,
  nosym=.false.,
  noinv=.false.,
  nosym_evc=.false.,
  no_t_rev=.false.,
/
&ELECTRONS
  diagonalization='david',
  conv_thr=7.349864494991327e-08,
  mixing_beta=0.05d00,
  electron_maxstep=1000,
  startingwfc='atomic',
/
&IONS
  ion_dynamics='ipi',
/
&CELL
  cell_dynamics='ipi',
/
CELL_PARAMETERS alat
    6.579727202290808d0     0.000000000000000d0     0.000000000000000d0
   -0.000775132442404d0     5.961596420607155d0     0.000000000000000d0
    0.000000000000000d0    -0.000000000000000d0    25.155947251439940d0
ATOMIC_SPECIES
Ti1 47.867d00 Ti.UPF
O1 15.999d00 O.UPF
N1 14.007d00 N.UPF
C1 12.011d00 C.UPF
H1 1.008d00 H.UPF
ATOMIC_POSITIONS {crystal}
Ti1      0.000123603383822d0     0.499897385958536d0     0.238512187198856d0
Ti1      0.500142521004230d0     0.250038178055688d0     0.238522014307695d0
O1       0.000095322930372d0     0.000084774873452d0     0.317452257936818d0
O1       0.500112315057126d0     0.000084209992886d0     0.290342007718641d0
O1       0.698270105622955d0     0.250236102495782d0     0.369213011426276d0
O1       0.301995368073695d0     0.249987007385122d0     0.369214717028816d0
Ti1      0.500198167309398d0     0.485761668506182d0     0.364758343030283d0
Ti1      0.000261424674789d0     0.248709163236136d0     0.368424970923767d0
O1       0.500699603192730d0     0.003335929549967d0     0.447739876518915d0
O1       0.001882992193933d0     0.999479849154423d0     0.422099495650131d0
O1       0.196675320638461d0     0.244977372655723d0     0.502013924955957d0
O1       0.805807748830931d0     0.245034872312869d0     0.501606489655309d0
Ti1      0.997280710214436d0     0.478851663211188d0     0.504198824571905d0
Ti1      0.499772104726475d0     0.236298112374431d0     0.493805136808497d0
O1       0.000108293995534d0     0.992814908272094d0     0.580949134242213d0
O1       0.503655215691259d0     0.992127152711783d0     0.551851646423885d0
O1       0.694581856050246d0     0.240072085918229d0     0.634535290595093d0
O1       0.308928358193857d0     0.241127318980142d0     0.634514970151197d0
Ti1      0.500644882618357d0     0.499592731260420d0     0.645747519297746d0
Ti1      0.002232050470466d0     0.241840957122390d0     0.627691060526469d0
O1       0.500093721748991d0     0.000084921243389d0     0.186906639369252d0
O1       0.003139361770204d0     0.996242455440168d0     0.682432264086804d0
O1       0.198268504441574d0     0.250236248865719d0     0.238667392858710d0
O1       0.801993766892314d0     0.249987153755059d0     0.238669098461250d0
Ti1      0.000123603383822d0     0.999897385958536d0     0.238512187198856d0
Ti1      0.500142521004230d0     0.750038178055688d0     0.238522014307695d0
O1       0.000095322930372d0     0.500084774873452d0     0.317452257936818d0
O1       0.500112315057126d0     0.500084209992886d0     0.290342007718641d0
O1       0.698270105622955d0     0.750236102495782d0     0.369213011426276d0
O1       0.301995368073695d0     0.749987007385122d0     0.369214717028816d0
Ti1      0.500001644927041d0     0.985370751416071d0     0.364779031055315d0
Ti1      0.000183276761494d0     0.748948988039575d0     0.368476322807288d0
O1       0.500589217080025d0     0.493274667044970d0     0.448778108467837d0
O1       0.001460782485842d0     0.499964783615161d0     0.422656139091726d0
O1       0.197675737552865d0     0.746836294607873d0     0.501596689250526d0
O1       0.806704172646539d0     0.744313235422492d0     0.501207736768528d0
Ti1      0.004306761237547d0     0.977337956339603d0     0.498850765186401d0
Ti1      0.501293793483961d0     0.717258750847322d0     0.502747117820681d0
O1       0.001735613301647d0     0.491656045235490d0     0.582838717623464d0
O1       0.502454449458189d0     0.503615972734216d0     0.551756953016076d0
O1       0.692272417069556d0     0.747141474110413d0     0.639648737899095d0
O1       0.308156356500434d0     0.745861116945745d0     0.639105393098832d0
Ti1      0.504547036340405d0     0.999937562403772d0     0.622378466090432d0
Ti1      0.002704363005185d0     0.773796010176675d0     0.637736275650548d0
O1       0.500093721748991d0     0.500084921243389d0     0.186906639369252d0
O1       0.198268504441574d0     0.750236248865719d0     0.238667392858710d0
O1       0.801993766892315d0     0.749987153755059d0     0.238669098461250d0
N1       0.009069822958128d0     0.447915983653647d0     0.740997519396296d0
N1       0.999827914327603d0     0.478163672574570d0     0.693749605038830d0
C1       0.013859705922016d0     0.641711171005524d0     0.778199961347577d0
H1       0.912495706560885d0     0.775886098032478d0     0.765566673570284d0
H1       0.975102907210690d0     0.574407109200630d0     0.817183350731938d0
H1       0.168793189999561d0     0.706127135880435d0     0.778527052706368d0
O1       0.495730362914491d0     0.466547672277559d0     0.717967524515807d0
H1       0.525685687316847d0     0.543705056734398d0     0.751307075581663d0
K_POINTS automatic
4 4 1  0 0 0 
