&CONTROL
  calculation='relax',
  prefix='calc',
  pseudo_dir='/storage/coda1/p-amedford6/0/shared/rich_project_chbe-medford/medford-share/data/pseudos_module/espresso/nninc/pbe/van',
  outdir='.',
  tefield=.true.,
  dipfield=.true.,
  tprnfor=.true.,
  disk_io='none',
/
&SYSTEM
  ibrav=0,
  celldm(1)=1.8897261245650618d0,
  nat=53,
  ntyp=5,
  ecutwfc=29.39945797996531d00,
  ecutrho=293.9945797996531d00,
  nbnd=205,
  occupations='smearing',
  smearing='fd',
  degauss=0.007349864494991328d00,
  input_dft='BEEF-vdW',
  edir=3,
  emaxpos=0.9673521389234561d00,
  eopreg=0.025d00,
  eamp=0.0d00,
  nosym=.false.,
  noinv=.false.,
  nosym_evc=.false.,
  no_t_rev=.false.,
/
&ELECTRONS
  diagonalization='david',
  conv_thr=7.349864494991327e-08,
  mixing_beta=0.05d00,
  electron_maxstep=1000,
  startingpot='file',
  startingwfc='atomic',
/
&IONS
  ion_dynamics='ipi',
/
&CELL
  cell_dynamics='ipi',
/
CELL_PARAMETERS alat
    6.579727202290808d0     0.000000000000000d0     0.000000000000000d0
   -0.000775132442404d0     5.961596420607155d0     0.000000000000000d0
    0.000000000000000d0    -0.000000000000000d0    25.155947251439940d0
ATOMIC_SPECIES
Ti1 47.867d00 Ti.UPF
O1 15.999d00 O.UPF
H1 1.008d00 H.UPF
N1 14.007d00 N.UPF
C1 12.011d00 C.UPF
ATOMIC_POSITIONS {crystal}
Ti1      0.000123603383822d0     0.499897385958536d0     0.238512187198856d0
Ti1      0.500142521004230d0     0.250038178055688d0     0.238522014307695d0
O1       0.000095322930372d0     0.000084774873452d0     0.317452257936818d0
O1       0.500112315057126d0     0.000084209992886d0     0.290342007718641d0
O1       0.698270105622955d0     0.250236102495782d0     0.369213011426276d0
O1       0.301995368073695d0     0.249987007385122d0     0.369214717028816d0
Ti1      0.500198167309398d0     0.485761668506182d0     0.364758343030283d0
Ti1      0.000261424674789d0     0.248709163236136d0     0.368424970923767d0
O1       0.512946290699221d0     0.000581878856990d0     0.450488465169142d0
O1       0.001882992193933d0     0.999479849154423d0     0.422099495650131d0
O1       0.212467457361221d0     0.247556889166846d0     0.502369328867951d0
O1       0.824260476447976d0     0.250160321088470d0     0.503490876500333d0
Ti1      0.010563794753338d0     0.495337952806628d0     0.498446813076437d0
Ti1      0.511354532495337d0     0.235505084252890d0     0.495221888839701d0
O1       0.022458105764639d0     0.002228125858012d0     0.582973588139250d0
O1       0.534813202688081d0     0.000770485028087d0     0.553181389615395d0
O1       0.727439225736852d0     0.257211058274441d0     0.643638154693965d0
O1       0.342623622407989d0     0.235287649764092d0     0.633755035022157d0
Ti1      0.544326578650036d0     0.502758519019034d0     0.638766164803011d0
Ti1      0.045600021499398d0     0.239125476443869d0     0.630968769830243d0
O1       0.500093721748991d0     0.000084921243389d0     0.186906639369252d0
O1       0.040175757774897d0     0.000640711062864d0     0.683123818891581d0
O1       0.198268504441574d0     0.250236248865719d0     0.238667392858710d0
O1       0.801993766892314d0     0.249987153755059d0     0.238669098461250d0
Ti1      0.000123603383822d0     0.999897385958536d0     0.238512187198856d0
Ti1      0.500142521004230d0     0.750038178055688d0     0.238522014307695d0
O1       0.000095322930372d0     0.500084774873452d0     0.317452257936818d0
O1       0.500112315057126d0     0.500084209992886d0     0.290342007718641d0
O1       0.698270105622955d0     0.750236102495782d0     0.369213011426276d0
O1       0.301995368073695d0     0.749987007385122d0     0.369214717028816d0
Ti1      0.500001644927041d0     0.985370751416071d0     0.364779031055315d0
Ti1      0.000183276761494d0     0.748948988039575d0     0.368476322807288d0
O1       0.514305048578707d0     0.496403356022388d0     0.451290399411705d0
O1       0.001460782485842d0     0.499964783615161d0     0.422656139091726d0
O1       0.212216763412943d0     0.750404625234369d0     0.502451125282557d0
O1       0.824757759442599d0     0.747138111406048d0     0.503600233071421d0
Ti1      0.014392491142083d0     0.994902413992921d0     0.496569414003374d0
Ti1      0.511734994077385d0     0.722063748367434d0     0.503461458637130d0
O1       0.026423547393520d0     0.500351166143083d0     0.590445164115287d0
O1       0.519087156534159d0     0.508418564551476d0     0.555395615004021d0
O1       0.727732087316109d0     0.746334713776791d0     0.643962201485734d0
O1       0.342610177727170d0     0.769611841441697d0     0.634388541518074d0
Ti1      0.536992671591748d0     0.003081899719503d0     0.624074850572454d0
Ti1      0.045482206238177d0     0.775310880678371d0     0.633852734931454d0
O1       0.500093721748991d0     0.500084921243389d0     0.186906639369252d0
O1       0.198268504441574d0     0.750236248865719d0     0.238667392858710d0
O1       0.801993766892315d0     0.749987153755059d0     0.238669098461250d0
H1       0.102154723882328d0     0.621887596308425d0     0.729915083998791d0
H1       0.110981308244774d0     0.355415841983863d0     0.727222292701682d0
N1       0.165460866990800d0     0.495342970178935d0     0.708746337781625d0
C1       0.404488880650503d0     0.502402004391803d0     0.718819521713246d0
H1       0.408840942437202d0     0.641179915026254d0     0.745595370131702d0
H1       0.414890498381872d0     0.371419962931453d0     0.747797638477660d0
K_POINTS automatic
4 4 1  0 0 0 
