&CONTROL
  calculation='relax',
  prefix='calc',
  pseudo_dir='/storage/coda1/p-amedford6/0/shared/rich_project_chbe-medford/medford-share/data/pseudos_module/espresso/nninc/pbe/van',
  outdir='.',
  tefield=.true.,
  dipfield=.true.,
  tprnfor=.true.,
  disk_io='none',
/
&SYSTEM
  ibrav=0,
  celldm(1)=1.8897261245650618d0,
  nat=57,
  ntyp=4,
  ecutwfc=29.39945797996531d00,
  ecutrho=293.9945797996531d00,
  nbnd=227,
  occupations='smearing',
  smearing='fd',
  degauss=0.007349864494991328d00,
  input_dft='BEEF-vdW',
  edir=3,
  emaxpos=0.027627493543193937d00,
  eopreg=0.025d00,
  eamp=0.0d00,
  nosym=.false.,
  noinv=.false.,
  nosym_evc=.false.,
  no_t_rev=.false.,
/
&ELECTRONS
  diagonalization='david',
  conv_thr=7.349864494991327e-08,
  mixing_beta=0.05d00,
  electron_maxstep=1000,
  startingwfc='atomic',
/
&IONS
  ion_dynamics='ipi',
/
&CELL
  cell_dynamics='ipi',
/
CELL_PARAMETERS alat
    6.579727202290808d0     0.000000000000000d0     0.000000000000000d0
   -0.001162698663605d0     8.942394630910734d0     0.000000000000000d0
    0.000000000000000d0    -0.000000000000000d0    25.155947251439940d0
ATOMIC_SPECIES
O1 15.999d00 O.UPF
Ti1 47.867d00 Ti.UPF
N1 14.007d00 N.UPF
H1 1.008d00 H.UPF
ATOMIC_POSITIONS {crystal}
O1       0.000111781329999d0     0.000056172521910d0     0.421099706309416d0
O1       0.500111247602872d0     0.000056205048563d0     0.551857404900192d0
O1       0.000110713875745d0     0.000056237575216d0     0.682615103490968d0
O1       0.000095322930372d0     0.000056516582301d0     0.317452257936818d0
O1       0.500094789203245d0     0.000056549108954d0     0.448209956527594d0
O1       0.000094255476118d0     0.000056581635607d0     0.578967655118370d0
O1       0.301995368073695d0     0.166658004923414d0     0.369214717028816d0
O1       0.801994834346568d0     0.166658037450067d0     0.499972415619592d0
O1       0.301994300619441d0     0.166658069976720d0     0.630730114210368d0
Ti1      0.000141987277103d0     0.166692151230444d0     0.369279712898471d0
Ti1      0.500141453549976d0     0.166692183757097d0     0.500037411489247d0
Ti1      0.000140919822849d0     0.166692216283750d0     0.630795110080022d0
O1       0.698270105622955d0     0.166824068330521d0     0.369213011426276d0
O1       0.198269571895828d0     0.166824100857174d0     0.499970710017052d0
O1       0.698269038168701d0     0.166824133383827d0     0.630728408607828d0
Ti1      0.500123069656695d0     0.333264956499010d0     0.369269885789632d0
Ti1      0.000122535929568d0     0.333264989025663d0     0.500027584380408d0
Ti1      0.500122002202441d0     0.333265021552316d0     0.630785282971183d0
O1       0.000111781329999d0     0.333389505855244d0     0.421099706309416d0
O1       0.500111247602872d0     0.333389538381896d0     0.551857404900192d0
O1       0.000095322930372d0     0.333389849915635d0     0.317452257936818d0
O1       0.500094789203245d0     0.333389882442287d0     0.448209956527594d0
O1       0.000094255476118d0     0.333389914968940d0     0.578967655118370d0
O1       0.301995368073695d0     0.499991338256748d0     0.369214717028816d0
O1       0.801994834346568d0     0.499991370783401d0     0.499972415619592d0
O1       0.301994300619441d0     0.499991403310053d0     0.630730114210368d0
Ti1      0.000141987277103d0     0.500025484563778d0     0.369279712898471d0
Ti1      0.500141453549976d0     0.500025517090430d0     0.500037411489247d0
Ti1      0.000140919822849d0     0.500025549617083d0     0.630795110080022d0
O1       0.698270105622955d0     0.500157401663855d0     0.369213011426276d0
O1       0.198269571895828d0     0.500157434190507d0     0.499970710017052d0
O1       0.698269038168701d0     0.500157466717160d0     0.630728408607828d0
Ti1      0.500123069656695d0     0.666598289832344d0     0.369269885789632d0
Ti1      0.000122535929568d0     0.666598322358996d0     0.500027584380408d0
Ti1      0.500122002202441d0     0.666598354885649d0     0.630785282971183d0
O1       0.000111781329999d0     0.666722839188577d0     0.421099706309416d0
O1       0.500111247602872d0     0.666722871715230d0     0.551857404900192d0
O1       0.000110713875745d0     0.666722904241883d0     0.682615103490968d0
O1       0.000095322930372d0     0.666723183248968d0     0.317452257936818d0
O1       0.500094789203245d0     0.666723215775621d0     0.448209956527594d0
O1       0.000094255476118d0     0.666723248302273d0     0.578967655118370d0
O1       0.301995368073695d0     0.833324671590081d0     0.369214717028816d0
O1       0.801994834346568d0     0.833324704116734d0     0.499972415619592d0
O1       0.301994300619441d0     0.833324736643387d0     0.630730114210368d0
Ti1      0.000141987277103d0     0.833358817897111d0     0.369279712898471d0
Ti1      0.500141453549976d0     0.833358850423764d0     0.500037411489247d0
Ti1      0.000140919822849d0     0.833358882950417d0     0.630795110080022d0
O1       0.698270105622955d0     0.833490734997188d0     0.369213011426276d0
O1       0.198269571895828d0     0.833490767523841d0     0.499970710017052d0
O1       0.698269038168701d0     0.833490800050493d0     0.630728408607828d0
Ti1      0.500123069656695d0     0.999931623165677d0     0.369269885789632d0
Ti1      0.000122535929568d0     0.999931655692330d0     0.500027584380408d0
Ti1      0.500122002202441d0     0.999931688218982d0     0.630785282971183d0
N1       0.500122002202441d0     0.666598354885649d0     0.722367134690777d0
H1       0.500103432326283d0     0.561511178711196d0     0.737802729149569d0
H1       0.376443636415173d0     0.719141887059441d0     0.737802729149569d0
H1       0.623818937846107d0     0.719141887059441d0     0.737802729149569d0
K_POINTS automatic
1 1 1  0 0 0 
