&CONTROL
  calculation='relax',
  prefix='calc',
  pseudo_dir='/storage/coda1/p-amedford6/0/shared/rich_project_chbe-medford/medford-share/data/pseudos_module/espresso/nninc/pbe/van',
  outdir='.',
  tefield=.true.,
  dipfield=.true.,
  tprnfor=.true.,
  disk_io='none',
/
&SYSTEM
  ibrav=0,
  celldm(1)=1.8897261245650618d0,
  nat=54,
  ntyp=5,
  ecutwfc=29.39945797996531d00,
  ecutrho=293.9945797996531d00,
  nbnd=208,
  occupations='smearing',
  smearing='fd',
  degauss=0.007349864494991328d00,
  input_dft='BEEF-vdW',
  edir=3,
  emaxpos=0.9883569914134189d00,
  eopreg=0.025d00,
  eamp=0.0d00,
  nosym=.false.,
  noinv=.false.,
  nosym_evc=.false.,
  no_t_rev=.false.,
/
&ELECTRONS
  diagonalization='david',
  conv_thr=7.349864494991327e-08,
  mixing_beta=0.05d00,
  electron_maxstep=1000,
  startingwfc='atomic',
/
&IONS
  ion_dynamics='ipi',
/
&CELL
  cell_dynamics='ipi',
/
CELL_PARAMETERS alat
    6.579727202290808d0     0.000000000000000d0     0.000000000000000d0
   -0.000775132442404d0     5.961596420607155d0     0.000000000000000d0
    0.000000000000000d0    -0.000000000000000d0    25.155947251439940d0
ATOMIC_SPECIES
Ti1 47.867d00 Ti.UPF
O1 15.999d00 O.UPF
N1 14.007d00 N.UPF
C1 12.011d00 C.UPF
H1 1.008d00 H.UPF
ATOMIC_POSITIONS {crystal}
Ti1      0.000123603383822d0     0.499897385958536d0     0.238512187198856d0
Ti1      0.500142521004230d0     0.250038178055688d0     0.238522014307695d0
O1       0.000095322930372d0     0.000084774873452d0     0.317452257936818d0
O1       0.500112315057126d0     0.000084209992886d0     0.290342007718641d0
O1       0.698270105622955d0     0.250236102495782d0     0.369213011426276d0
O1       0.301995368073695d0     0.249987007385122d0     0.369214717028816d0
Ti1      0.500198167309398d0     0.485761668506182d0     0.364758343030283d0
Ti1      0.000261424674789d0     0.248709163236136d0     0.368424970923767d0
O1       0.503281218726392d0     0.998006827156775d0     0.452496526803057d0
O1       0.001882992193933d0     0.999479849154423d0     0.422099495650131d0
O1       0.200200602532660d0     0.251534296198375d0     0.503145984593778d0
O1       0.809122501517370d0     0.251251168787831d0     0.503195879743574d0
Ti1      0.004523576464081d0     0.499304411741252d0     0.496875218792486d0
Ti1      0.504986492834960d0     0.249865106208596d0     0.497879212124475d0
O1       0.004468925821210d0     0.012749954528473d0     0.585851928258936d0
O1       0.506640266045275d0     0.004457243991133d0     0.556764669546102d0
O1       0.696975478011580d0     0.253237287587461d0     0.648025756551456d0
O1       0.315449432794471d0     0.247814914362013d0     0.645423018122183d0
Ti1      0.505498013333345d0     0.498917875784376d0     0.626100734912999d0
Ti1      0.006637276180236d0     0.230882234654051d0     0.642999573118877d0
O1       0.500093721748991d0     0.000084921243389d0     0.186906639369252d0
O1       0.006137390201117d0     0.969235957415464d0     0.686805627483089d0
O1       0.198268504441574d0     0.250236248865719d0     0.238667392858710d0
O1       0.801993766892314d0     0.249987153755059d0     0.238669098461250d0
Ti1      0.000123603383822d0     0.999897385958536d0     0.238512187198856d0
Ti1      0.500142521004230d0     0.750038178055688d0     0.238522014307695d0
O1       0.000095322930372d0     0.500084774873452d0     0.317452257936818d0
O1       0.500112315057126d0     0.500084209992886d0     0.290342007718641d0
O1       0.698270105622955d0     0.750236102495782d0     0.369213011426276d0
O1       0.301995368073695d0     0.749987007385122d0     0.369214717028816d0
Ti1      0.500001644927041d0     0.985370751416071d0     0.364779031055315d0
Ti1      0.000183276761494d0     0.748948988039575d0     0.368476322807288d0
O1       0.503957157954590d0     0.502012261258770d0     0.452264337832146d0
O1       0.001460782485842d0     0.499964783615161d0     0.422656139091726d0
O1       0.199881057453970d0     0.748899119931189d0     0.505104663704123d0
O1       0.809250363279949d0     0.749216739887524d0     0.505113949953245d0
Ti1      0.004394229838268d0     0.002009563451630d0     0.497516969296436d0
Ti1      0.505258948478147d0     0.749968890187954d0     0.498565848298539d0
O1       0.004938088580272d0     0.487416983910653d0     0.598873972576030d0
O1       0.506166777594637d0     0.495833248629935d0     0.555240467204184d0
O1       0.695688296457397d0     0.744797007778872d0     0.642247261368328d0
O1       0.316779870162268d0     0.747259034640882d0     0.640973389701160d0
Ti1      0.507340449121165d0     0.998730151558351d0     0.628439057814838d0
Ti1      0.007904437439703d0     0.774522404415947d0     0.630618425154797d0
O1       0.500093721748991d0     0.500084921243389d0     0.186906639369252d0
O1       0.198268504441574d0     0.750236248865719d0     0.238667392858710d0
O1       0.801993766892315d0     0.749987153755059d0     0.238669098461250d0
N1       0.032172173054098d0     0.434039646129817d0     0.726865012383866d0
C1       0.200376254750889d0     0.461917846462009d0     0.751552449655440d0
H1       0.208752878844875d0     0.546098721219723d0     0.789807343457585d0
H1       0.336323099741594d0     0.396429693656269d0     0.733564946229751d0
N1       0.856993995187948d0     0.511368206092094d0     0.751499120934554d0
H1       0.876117826459134d0     0.668374342089617d0     0.766452162517091d0
H1       0.743341993224324d0     0.511377928693705d0     0.724519511820381d0
K_POINTS automatic
4 4 1  0 0 0 
