&CONTROL
  calculation='relax',
  prefix='calc',
  pseudo_dir='/storage/coda1/p-amedford6/0/shared/rich_project_chbe-medford/medford-share/data/pseudos_module/espresso/nninc/pbe/van',
  outdir='.',
  tefield=.true.,
  dipfield=.true.,
  tprnfor=.true.,
  disk_io='none',
/
&SYSTEM
  ibrav=0,
  celldm(1)=1.8897261245650618d0,
  nat=55,
  ntyp=5,
  ecutwfc=29.39945797996531d00,
  ecutrho=293.9945797996531d00,
  nbnd=211,
  occupations='smearing',
  smearing='fd',
  degauss=0.007349864494991328d00,
  input_dft='BEEF-vdW',
  edir=3,
  emaxpos=0.05015438302011255d00,
  eopreg=0.025d00,
  eamp=0.0d00,
  nosym=.false.,
  noinv=.false.,
  nosym_evc=.false.,
  no_t_rev=.false.,
/
&ELECTRONS
  diagonalization='david',
  conv_thr=7.349864494991327e-08,
  mixing_beta=0.05d00,
  electron_maxstep=1000,
  startingwfc='atomic',
/
&IONS
  ion_dynamics='ipi',
/
&CELL
  cell_dynamics='ipi',
/
CELL_PARAMETERS alat
    6.579727202290808d0     0.000000000000000d0     0.000000000000000d0
   -0.000775132442404d0     5.961596420607155d0     0.000000000000000d0
    0.000000000000000d0    -0.000000000000000d0    25.155947251439940d0
ATOMIC_SPECIES
Ti1 47.867d00 Ti.UPF
O1 15.999d00 O.UPF
C1 12.011d00 C.UPF
H1 1.008d00 H.UPF
N1 14.007d00 N.UPF
ATOMIC_POSITIONS {crystal}
Ti1      0.000123603383822d0     0.499897385958537d0     0.238512187198856d0
Ti1      0.500142521004230d0     0.250038178055688d0     0.238522014307695d0
O1       0.000095322930372d0     0.000084774873452d0     0.317452257936818d0
O1       0.500112315057126d0     0.000084209992886d0     0.290342007718641d0
O1       0.698270105622955d0     0.250236102495782d0     0.369213011426276d0
O1       0.301995368073695d0     0.249987007385122d0     0.369214717028816d0
Ti1      0.504633112400145d0     0.504556720305991d0     0.363976896962590d0
Ti1      0.005914970395500d0     0.253120265981780d0     0.368558758726863d0
O1       0.505966080353871d0     0.999126101374957d0     0.451982677284372d0
O1       0.001297425882107d0     0.999925964053660d0     0.421652991197440d0
O1       0.202025694606447d0     0.249319706986547d0     0.502424941562130d0
O1       0.809410100940434d0     0.249189736346659d0     0.503564443782568d0
Ti1      0.005904511208314d0     0.501074117221220d0     0.498789246656802d0
Ti1      0.505896292079611d0     0.248826382783745d0     0.497246164865691d0
O1       0.010802207278115d0     0.998764619186096d0     0.583808587924057d0
O1       0.503994339871361d0     0.998269952286135d0     0.556576190968441d0
O1       0.702687857521685d0     0.251590319759312d0     0.642688513844408d0
O1       0.319581770629342d0     0.252121343538808d0     0.643555477618928d0
Ti1      0.510831795451807d0     0.496676668610256d0     0.625274632511178d0
Ti1      0.009216459779496d0     0.222480807566777d0     0.636050681262095d0
O1       0.500093721748991d0     0.000084921243389d0     0.186906639369252d0
O1       0.009664796964637d0     0.998634626803750d0     0.684273260739400d0
O1       0.198268504441574d0     0.250236248865719d0     0.238667392858710d0
O1       0.801993766892314d0     0.249987153755059d0     0.238669098461250d0
Ti1      0.000123603383822d0     0.999897385958537d0     0.238512187198856d0
Ti1      0.500142521004230d0     0.750038178055688d0     0.238522014307695d0
O1       0.000095322930372d0     0.500084774873452d0     0.317452257936818d0
O1       0.500112315057126d0     0.500084209992886d0     0.290342007718641d0
O1       0.698270105622955d0     0.750236102495782d0     0.369213011426276d0
O1       0.301995368073695d0     0.749987007385122d0     0.369214717028816d0
Ti1      0.504351559913728d0     0.004678280127070d0     0.363935558351644d0
Ti1      0.005912772886183d0     0.750484518696451d0     0.368420105766908d0
O1       0.505740609445266d0     0.498768613322664d0     0.451635453677748d0
O1       0.001597187654548d0     0.499874652217225d0     0.422470313901311d0
O1       0.201947257542486d0     0.749244767336873d0     0.502381973490872d0
O1       0.809439961254719d0     0.749296847150351d0     0.503551896574708d0
Ti1      0.005417124248255d0     0.001681852557731d0     0.496337499696824d0
Ti1      0.505821552820313d0     0.748417856109710d0     0.497220570976546d0
O1       0.012010484675992d0     0.500254055344356d0     0.590504987683291d0
O1       0.505392236494691d0     0.498695091408999d0     0.554401045487795d0
O1       0.703136987130853d0     0.745100644806594d0     0.642043521022547d0
O1       0.320520520432478d0     0.741996083590740d0     0.644940475274038d0
Ti1      0.506651756848366d0     0.997639200740338d0     0.627795213117496d0
Ti1      0.002923512071347d0     0.760425604368087d0     0.631245754740151d0
O1       0.500093721748991d0     0.500084921243389d0     0.186906639369252d0
O1       0.198268504441574d0     0.750236248865719d0     0.238667392858710d0
O1       0.801993766892315d0     0.749987153755059d0     0.238669098461250d0
C1       0.922541490014892d0     0.517490904330593d0     0.752752809770679d0
O1       0.032546989203185d0     0.505760271468698d0     0.702843440695090d0
H1       0.765070336515906d0     0.479618382622959d0     0.743734016856021d0
H1       0.176100167268831d0     0.538046633850183d0     0.708571437647377d0
H1       0.983040260477794d0     0.392046394293153d0     0.779976995372083d0
H1       0.935698672221052d0     0.686192804038059d0     0.768966824607979d0
N1       0.892133587347423d0     0.527469824257557d0     0.913402126670973d0
N1       0.778020331996932d0     0.541438135728790d0     0.881271485698511d0
K_POINTS automatic
4 4 1  0 0 0 
