&CONTROL
  calculation='relax',
  prefix='calc',
  pseudo_dir='/storage/coda1/p-amedford6/0/shared/rich_project_chbe-medford/medford-share/data/pseudos_module/espresso/nninc/pbe/van',
  outdir='.',
  tefield=.true.,
  dipfield=.true.,
  tprnfor=.true.,
  disk_io='none',
/
&SYSTEM
  ibrav=0,
  celldm(1)=1.8897261245650618d0,
  nat=54,
  ntyp=5,
  ecutwfc=29.39945797996531d00,
  ecutrho=293.9945797996531d00,
  nbnd=208,
  occupations='smearing',
  smearing='fd',
  degauss=0.007349864494991328d00,
  input_dft='BEEF-vdW',
  edir=3,
  emaxpos=0.9785184942837979d00,
  eopreg=0.025d00,
  eamp=0.0d00,
  nosym=.false.,
  noinv=.false.,
  nosym_evc=.false.,
  no_t_rev=.false.,
/
&ELECTRONS
  diagonalization='david',
  conv_thr=7.349864494991327e-08,
  mixing_beta=0.05d00,
  electron_maxstep=1000,
  startingwfc='atomic',
/
&IONS
  ion_dynamics='ipi',
/
&CELL
  cell_dynamics='ipi',
/
CELL_PARAMETERS alat
    6.579727202290808d0     0.000000000000000d0     0.000000000000000d0
   -0.000775132442404d0     5.961596420607155d0     0.000000000000000d0
    0.000000000000000d0    -0.000000000000000d0    25.155947251439940d0
ATOMIC_SPECIES
Ti1 47.867d00 Ti.UPF
O1 15.999d00 O.UPF
N1 14.007d00 N.UPF
C1 12.011d00 C.UPF
H1 1.008d00 H.UPF
ATOMIC_POSITIONS {crystal}
Ti1      0.000123603383822d0     0.499897385958536d0     0.238512187198856d0
Ti1      0.500142521004230d0     0.250038178055688d0     0.238522014307695d0
O1       0.000095322930372d0     0.000084774873452d0     0.317452257936818d0
O1       0.500112315057126d0     0.000084209992886d0     0.290342007718641d0
O1       0.698270105622955d0     0.250236102495782d0     0.369213011426276d0
O1       0.301995368073695d0     0.249987007385122d0     0.369214717028816d0
Ti1      0.500198167309398d0     0.485761668506182d0     0.364758343030283d0
Ti1      0.000261424674789d0     0.248709163236136d0     0.368424970923767d0
O1       0.503830957475820d0     0.996056165971156d0     0.449674971510204d0
O1       0.001882992193933d0     0.999479849154423d0     0.422099495650131d0
O1       0.201278264459779d0     0.251211116532948d0     0.500433371234579d0
O1       0.809285382282498d0     0.246277522221211d0     0.503039369604699d0
Ti1      0.994784473007602d0     0.499781065738981d0     0.507483843073678d0
Ti1      0.484575683088480d0     0.244977730587717d0     0.495607641063776d0
O1       0.020740025500219d0     0.000177559502038d0     0.581837603937429d0
O1       0.492432929739170d0     0.000130754808476d0     0.550653269035194d0
O1       0.704332359295191d0     0.248402510276909d0     0.636082547082048d0
O1       0.325397472630776d0     0.254830162305053d0     0.637364823500548d0
Ti1      0.530658917609130d0     0.501928516455171d0     0.623140291638063d0
Ti1      0.020381696177670d0     0.226696510388628d0     0.630868920289511d0
O1       0.500093721748991d0     0.000084921243389d0     0.186906639369252d0
O1       0.018749024134887d0     0.003282034497119d0     0.683809192757240d0
O1       0.198268504441574d0     0.250236248865719d0     0.238667392858710d0
O1       0.801993766892314d0     0.249987153755059d0     0.238669098461250d0
Ti1      0.000123603383822d0     0.999897385958536d0     0.238512187198856d0
Ti1      0.500142521004230d0     0.750038178055688d0     0.238522014307695d0
O1       0.000095322930372d0     0.500084774873452d0     0.317452257936818d0
O1       0.500112315057126d0     0.500084209992886d0     0.290342007718641d0
O1       0.698270105622955d0     0.750236102495782d0     0.369213011426276d0
O1       0.301995368073695d0     0.749987007385122d0     0.369214717028816d0
Ti1      0.500001644927041d0     0.985370751416071d0     0.364779031055315d0
Ti1      0.000183276761494d0     0.748948988039575d0     0.368476322807288d0
O1       0.503975649721040d0     0.497775416472250d0     0.449578577807551d0
O1       0.001460782485842d0     0.499964783615161d0     0.422656139091726d0
O1       0.201265492892910d0     0.745766592175784d0     0.500959504587038d0
O1       0.808623553496686d0     0.750768588139236d0     0.503278338945788d0
Ti1      0.988741348983729d0     0.999487610779279d0     0.500149686270990d0
Ti1      0.485236562310820d0     0.744629756196739d0     0.495863441246579d0
O1       0.009056065526586d0     0.497246887643548d0     0.583930959608314d0
O1       0.504730831165508d0     0.496684650863604d0     0.551403116724878d0
O1       0.700979583228813d0     0.764348143801311d0     0.626835387700461d0
O1       0.331025441642932d0     0.746153426184736d0     0.641015311768966d0
Ti1      0.496560992504083d0     0.997241991590533d0     0.622574093208142d0
Ti1      0.000656839065773d0     0.750009834475453d0     0.644647641090368d0
O1       0.500093721748991d0     0.500084921243389d0     0.186906639369252d0
O1       0.198268504441574d0     0.750236248865719d0     0.238667392858710d0
O1       0.801993766892315d0     0.749987153755059d0     0.238669098461250d0
N1       0.042882764210125d0     0.486281812648018d0     0.699619789993252d0
C1       0.191721476816836d0     0.477618181265898d0     0.742656757303032d0
H1       0.195369118157440d0     0.637787945205483d0     0.764084809752432d0
H1       0.149850303087289d0     0.343262039066016d0     0.770130349198343d0
H1       0.342187078788397d0     0.441885125961522d0     0.727483783510761d0
N1       0.861710602352884d0     0.583489111728885d0     0.710947962895803d0
H1       0.870089059038982d0     0.672815962322472d0     0.745806621365218d0
K_POINTS automatic
4 4 1  0 0 0 
