&CONTROL
  calculation='relax',
  prefix='calc',
  pseudo_dir='/storage/coda1/p-amedford6/0/shared/rich_project_chbe-medford/medford-share/data/pseudos_module/espresso/nninc/pbe/van',
  outdir='.',
  tefield=.true.,
  dipfield=.true.,
  tprnfor=.true.,
  disk_io='none',
/
&SYSTEM
  ibrav=0,
  celldm(1)=1.8897261245650618d0,
  nat=53,
  ntyp=5,
  ecutwfc=29.39945797996531d00,
  ecutrho=293.9945797996531d00,
  nbnd=207,
  occupations='smearing',
  smearing='fd',
  degauss=0.007349864494991328d00,
  nspin=2,
  starting_magnetization(1)=0.0d00,
  starting_magnetization(2)=0.0d00,
  starting_magnetization(3)=0.0d00,
  starting_magnetization(4)=0.025d00,
  starting_magnetization(5)=0.0d00,
  input_dft='BEEF-vdW',
  edir=3,
  emaxpos=0.9879858333886551d00,
  eopreg=0.025d00,
  eamp=0.0d00,
  nosym=.false.,
  noinv=.false.,
  nosym_evc=.false.,
  no_t_rev=.false.,
/
&ELECTRONS
  diagonalization='david',
  conv_thr=7.349864494991327e-08,
  mixing_beta=0.05d00,
  electron_maxstep=1000,
  startingpot='file',
  startingwfc='atomic',
/
&IONS
  ion_dynamics='ipi',
/
&CELL
  cell_dynamics='ipi',
/
CELL_PARAMETERS alat
    6.579727202290808d0     0.000000000000000d0     0.000000000000000d0
   -0.000775132442404d0     5.961596420607155d0     0.000000000000000d0
    0.000000000000000d0    -0.000000000000000d0    25.155947251439940d0
ATOMIC_SPECIES
Ti1 47.867d00 Ti.UPF
O1 15.999d00 O.UPF
N1 14.007d00 N.UPF
C1 12.011d00 C.UPF
H1 1.008d00 H.UPF
ATOMIC_POSITIONS {crystal}
Ti1      0.000123603383822d0     0.499897385958536d0     0.238512187198856d0
Ti1      0.500142521004230d0     0.250038178055688d0     0.238522014307695d0
O1       0.000095322930372d0     0.000084774873452d0     0.317452257936818d0
O1       0.500112315057126d0     0.000084209992886d0     0.290342007718641d0
O1       0.698270105622955d0     0.250236102495782d0     0.369213011426276d0
O1       0.301995368073695d0     0.249987007385122d0     0.369214717028816d0
Ti1      0.500198167309398d0     0.485761668506182d0     0.364758343030283d0
Ti1      0.000261424674789d0     0.248709163236136d0     0.368424970923767d0
O1       0.502108615709322d0     0.001580383466608d0     0.450080890054200d0
O1       0.001882992193933d0     0.999479849154423d0     0.422099495650131d0
O1       0.199924300416848d0     0.252869776360419d0     0.502147861310327d0
O1       0.808366507919274d0     0.251529302629322d0     0.502897807680123d0
Ti1      0.996159848006032d0     0.502496521997224d0     0.500415825168354d0
Ti1      0.489940873515729d0     0.250387188627812d0     0.496589287782657d0
O1       0.009391559918222d0     0.990548102499243d0     0.580450038894078d0
O1       0.500576209062712d0     0.002218598082405d0     0.551877795476450d0
O1       0.694927826072554d0     0.252642402558144d0     0.636584741206405d0
O1       0.315662236295612d0     0.256560924477571d0     0.639246248290330d0
Ti1      0.511492135158970d0     0.507438991816606d0     0.623739030859838d0
Ti1      0.005919131570635d0     0.218696095633046d0     0.624966233330204d0
O1       0.500093721748991d0     0.000084921243389d0     0.186906639369252d0
O1       0.002881958959237d0     0.017961618085776d0     0.683035454651394d0
O1       0.198268504441574d0     0.250236248865719d0     0.238667392858710d0
O1       0.801993766892314d0     0.249987153755059d0     0.238669098461250d0
Ti1      0.000123603383822d0     0.999897385958536d0     0.238512187198856d0
Ti1      0.500142521004230d0     0.750038178055688d0     0.238522014307695d0
O1       0.000095322930372d0     0.500084774873452d0     0.317452257936818d0
O1       0.500112315057126d0     0.500084209992886d0     0.290342007718641d0
O1       0.698270105622955d0     0.750236102495782d0     0.369213011426276d0
O1       0.301995368073695d0     0.749987007385122d0     0.369214717028816d0
Ti1      0.500001644927041d0     0.985370751416071d0     0.364779031055315d0
Ti1      0.000183276761494d0     0.748948988039575d0     0.368476322807288d0
O1       0.502254757551572d0     0.500357664475826d0     0.450100533787053d0
O1       0.001460782485842d0     0.499964783615161d0     0.422656139091726d0
O1       0.199670847613374d0     0.748465892997884d0     0.501198328612509d0
O1       0.807372988868884d0     0.749668220767475d0     0.502005747619192d0
Ti1      0.992606659678667d0     0.999454229634286d0     0.498491156466459d0
Ti1      0.490313558848059d0     0.750574326879261d0     0.495901210874918d0
O1       0.005801351538995d0     0.504219314930411d0     0.591690594332942d0
O1       0.503424006618719d0     0.502994173943467d0     0.552010427945064d0
O1       0.690612535296706d0     0.759481369504569d0     0.636624703570750d0
O1       0.321770029985773d0     0.753833605373233d0     0.639148127529372d0
Ti1      0.502187793026131d0     0.004058499369145d0     0.624126020306778d0
Ti1      0.007621172714386d0     0.746534229149645d0     0.649400940754021d0
O1       0.500093721748991d0     0.500084921243389d0     0.186906639369252d0
O1       0.198268504441574d0     0.750236248865719d0     0.238667392858710d0
O1       0.801993766892315d0     0.749987153755059d0     0.238669098461250d0
N1       0.081350751947662d0     0.573478981913558d0     0.718277186782574d0
C1       0.206099596621615d0     0.504561650777444d0     0.764096306344947d0
H1       0.225953870897693d0     0.652513058507027d0     0.789065027408058d0
H1       0.128760054512398d0     0.371409868987263d0     0.785687617207735d0
H1       0.354123846436815d0     0.450412797541645d0     0.749821512333218d0
N1       0.898975384437436d0     0.547439702382421d0     0.714169058610586d0
K_POINTS automatic
4 4 1  0 0 0 
