&CONTROL
  calculation='relax',
  prefix='calc',
  pseudo_dir='/storage/coda1/p-amedford6/0/shared/rich_project_chbe-medford/medford-share/data/pseudos_module/espresso/nninc/pbe/van',
  outdir='.',
  tefield=.true.,
  dipfield=.true.,
  tprnfor=.true.,
  disk_io='none',
/
&SYSTEM
  ibrav=0,
  celldm(1)=1.8897261245650618d0,
  nat=51,
  ntyp=4,
  ecutwfc=29.39945797996531d00,
  ecutrho=293.9945797996531d00,
  nbnd=202,
  occupations='smearing',
  smearing='fd',
  degauss=0.007349864494991328d00,
  input_dft='BEEF-vdW',
  edir=3,
  emaxpos=0.957973438720416d00,
  eopreg=0.025d00,
  eamp=0.0d00,
  nosym=.false.,
  noinv=.false.,
  nosym_evc=.false.,
  no_t_rev=.false.,
/
&ELECTRONS
  diagonalization='david',
  conv_thr=7.349864494991327e-08,
  mixing_beta=0.05d00,
  electron_maxstep=1000,
  startingpot='file',
  startingwfc='atomic',
/
&IONS
  ion_dynamics='ipi',
/
&CELL
  cell_dynamics='ipi',
/
CELL_PARAMETERS alat
    6.579727202290808d0     0.000000000000000d0     0.000000000000000d0
   -0.000775132442404d0     5.961596420607155d0     0.000000000000000d0
    0.000000000000000d0    -0.000000000000000d0    25.155947251439940d0
ATOMIC_SPECIES
Ti1 47.867d00 Ti.UPF
O1 15.999d00 O.UPF
C1 12.011d00 C.UPF
H1 1.008d00 H.UPF
ATOMIC_POSITIONS {crystal}
Ti1      0.000123603383822d0     0.499897385958537d0     0.238512187198856d0
Ti1      0.500142521004230d0     0.250038178055688d0     0.238522014307695d0
O1       0.000095322930372d0     0.000084774873452d0     0.317452257936818d0
O1       0.500112315057126d0     0.000084209992886d0     0.290342007718641d0
O1       0.698270105622955d0     0.250236102495782d0     0.369213011426276d0
O1       0.301995368073695d0     0.249987007385122d0     0.369214717028816d0
Ti1      0.505047394423388d0     0.495074450351664d0     0.364036744767362d0
Ti1      0.005251481568356d0     0.266964422399985d0     0.372469179625782d0
O1       0.500354947639489d0     0.999160499490750d0     0.451268534059617d0
O1       0.000855999201939d0     0.000027417761049d0     0.421621014194046d0
O1       0.194829452645877d0     0.248518553174793d0     0.502796582458844d0
O1       0.802974802838359d0     0.250074677626168d0     0.502557752599841d0
Ti1      0.005873681232454d0     0.492677264977489d0     0.509328451609998d0
Ti1      0.509669394269277d0     0.248623380377621d0     0.496707076799003d0
O1       0.998067796007780d0     0.995233178154238d0     0.582765574316095d0
O1       0.498867292538861d0     0.998911701835299d0     0.554405476977942d0
O1       0.688745294930967d0     0.252287196868412d0     0.639954048785305d0
O1       0.308360788351492d0     0.251579345543566d0     0.639991660020452d0
Ti1      0.496559711520567d0     0.499351223784555d0     0.624991295651245d0
Ti1      0.994224374485082d0     0.247871672156235d0     0.642964156914629d0
O1       0.500093721748991d0     0.000084921243389d0     0.186906639369252d0
O1       0.997906487275507d0     0.000497792277124d0     0.683516124465395d0
O1       0.198268504441574d0     0.250236248865719d0     0.238667392858710d0
O1       0.801993766892314d0     0.249987153755059d0     0.238669098461250d0
Ti1      0.000123603383822d0     0.999897385958537d0     0.238512187198856d0
Ti1      0.500142521004230d0     0.750038178055688d0     0.238522014307695d0
O1       0.000095322930372d0     0.500084774873452d0     0.317452257936818d0
O1       0.500112315057126d0     0.500084209992886d0     0.290342007718641d0
O1       0.698270105622955d0     0.750236102495782d0     0.369213011426276d0
O1       0.301995368073695d0     0.749987007385122d0     0.369214717028816d0
Ti1      0.502968452507685d0     0.995825660536160d0     0.363835004076785d0
Ti1      0.005527413911344d0     0.757891099208244d0     0.368256186790391d0
O1       0.500405390710594d0     0.498345374727640d0     0.451186175141790d0
O1       0.001043549528509d0     0.500577588855634d0     0.420307357400840d0
O1       0.195174298800003d0     0.747604158462423d0     0.502559491253739d0
O1       0.802881812500787d0     0.748091805203309d0     0.502373621233249d0
Ti1      0.007008339006256d0     0.992901840108587d0     0.497923818538966d0
Ti1      0.509301181942859d0     0.748250619541378d0     0.496376592989350d0
O1       0.000134238088501d0     0.499405228684679d0     0.585337686121056d0
O1       0.498717236160738d0     0.498685094104437d0     0.553708136446563d0
O1       0.688637051349379d0     0.747975452067255d0     0.639662796918147d0
O1       0.307576741100091d0     0.748273860348746d0     0.639743417696322d0
Ti1      0.495379332140364d0     0.998842177207122d0     0.625670967871731d0
Ti1      0.995044447450759d0     0.772615295138263d0     0.631783589383456d0
O1       0.500093721748991d0     0.500084921243389d0     0.186906639369252d0
O1       0.198268504441574d0     0.750236248865719d0     0.238667392858710d0
O1       0.801993766892315d0     0.749987153755059d0     0.238669098461250d0
C1       0.998221100477566d0     0.486295344339008d0     0.709640161602730d0
H1       0.997988255404828d0     0.663488746125643d0     0.720328384349057d0
H1       0.131874227521936d0     0.415267030639886d0     0.728594256322170d0
H1       0.863994626206514d0     0.414650648950045d0     0.729040238071579d0
K_POINTS automatic
4 4 1  0 0 0 
