&CONTROL
  calculation='relax',
  prefix='calc',
  pseudo_dir='/storage/coda1/p-amedford6/0/shared/rich_project_chbe-medford/medford-share/data/pseudos_module/espresso/nninc/pbe/van',
  outdir='.',
  tefield=.true.,
  dipfield=.true.,
  tprnfor=.true.,
  disk_io='none',
/
&SYSTEM
  ibrav=0,
  celldm(1)=1.8897261245650618d0,
  nat=54,
  ntyp=5,
  ecutwfc=29.39945797996531d00,
  ecutrho=293.9945797996531d00,
  nbnd=208,
  occupations='smearing',
  smearing='fd',
  degauss=0.007349864494991328d00,
  input_dft='BEEF-vdW',
  edir=3,
  emaxpos=0.9838570409868452d00,
  eopreg=0.025d00,
  eamp=0.0d00,
  nosym=.false.,
  noinv=.false.,
  nosym_evc=.false.,
  no_t_rev=.false.,
/
&ELECTRONS
  diagonalization='david',
  conv_thr=7.349864494991327e-08,
  mixing_beta=0.05d00,
  electron_maxstep=1000,
  startingpot='file',
  startingwfc='atomic',
/
&IONS
  ion_dynamics='ipi',
/
&CELL
  cell_dynamics='ipi',
/
CELL_PARAMETERS alat
    6.579727202290808d0     0.000000000000000d0     0.000000000000000d0
   -0.000775132442404d0     5.961596420607155d0     0.000000000000000d0
    0.000000000000000d0    -0.000000000000000d0    25.155947251439940d0
ATOMIC_SPECIES
Ti1 47.867d00 Ti.UPF
O1 15.999d00 O.UPF
N1 14.007d00 N.UPF
C1 12.011d00 C.UPF
H1 1.008d00 H.UPF
ATOMIC_POSITIONS {crystal}
Ti1      0.000123603383822d0     0.499897385958536d0     0.238512187198856d0
Ti1      0.500142521004230d0     0.250038178055688d0     0.238522014307695d0
O1       0.000095322930372d0     0.000084774873452d0     0.317452257936818d0
O1       0.500112315057126d0     0.000084209992886d0     0.290342007718641d0
O1       0.698270105622955d0     0.250236102495782d0     0.369213011426276d0
O1       0.301995368073695d0     0.249987007385122d0     0.369214717028816d0
Ti1      0.500198167309398d0     0.485761668506182d0     0.364758343030283d0
Ti1      0.000261424674789d0     0.248709163236136d0     0.368424970923767d0
O1       0.501256243288212d0     0.993657004465341d0     0.451175661203701d0
O1       0.001882992193933d0     0.999479849154423d0     0.422099495650131d0
O1       0.194740290068440d0     0.247732708605097d0     0.502431675132667d0
O1       0.806744154119825d0     0.249460699947769d0     0.502488039160556d0
Ti1      0.999413754718493d0     0.490554427958372d0     0.498670969121749d0
Ti1      0.503118857481906d0     0.214926952073776d0     0.505077705438109d0
O1       0.999485753941618d0     0.009502257103014d0     0.581719455588820d0
O1       0.501402366822283d0     0.009498526320223d0     0.556370535085330d0
O1       0.695343146510224d0     0.257293124748134d0     0.641256040117666d0
O1       0.314294799165616d0     0.255106452152230d0     0.644663271666694d0
Ti1      0.499030331547935d0     0.501922213148099d0     0.623392386853327d0
Ti1      0.987946902136265d0     0.247389831014092d0     0.636977435994890d0
O1       0.500093721748991d0     0.000084921243389d0     0.186906639369252d0
O1       0.003683920219249d0     0.983628238355322d0     0.681907102338399d0
O1       0.198268504441574d0     0.250236248865719d0     0.238667392858710d0
O1       0.801993766892314d0     0.249987153755059d0     0.238669098461250d0
Ti1      0.000123603383822d0     0.999897385958536d0     0.238512187198856d0
Ti1      0.500142521004230d0     0.750038178055688d0     0.238522014307695d0
O1       0.000095322930372d0     0.500084774873452d0     0.317452257936818d0
O1       0.500112315057126d0     0.500084209992886d0     0.290342007718641d0
O1       0.698270105622955d0     0.750236102495782d0     0.369213011426276d0
O1       0.301995368073695d0     0.749987007385122d0     0.369214717028816d0
Ti1      0.500001644927041d0     0.985370751416071d0     0.364779031055315d0
Ti1      0.000183276761494d0     0.748948988039575d0     0.368476322807288d0
O1       0.500878292098166d0     0.502564952758014d0     0.449414953297170d0
O1       0.001460782485842d0     0.499964783615161d0     0.422656139091726d0
O1       0.195361139445018d0     0.747553681835356d0     0.503374248912218d0
O1       0.806708154157331d0     0.745822231201821d0     0.503386215017388d0
Ti1      0.006370649848414d0     0.991746761702570d0     0.497444186979196d0
Ti1      0.503871593975089d0     0.732233233635197d0     0.494362708011162d0
O1       0.004468870209038d0     0.491588769677595d0     0.589968980639950d0
O1       0.499714330791396d0     0.497197587798098d0     0.553030897808336d0
O1       0.694029795165708d0     0.735753303768775d0     0.640932046410782d0
O1       0.307778547038617d0     0.741331915758363d0     0.638258715271875d0
Ti1      0.493686603556595d0     0.999868240720958d0     0.647419830004799d0
Ti1      0.002111803568515d0     0.780229545592934d0     0.627974081067553d0
O1       0.500093721748991d0     0.500084921243389d0     0.186906639369252d0
O1       0.198268504441574d0     0.750236248865719d0     0.238667392858710d0
O1       0.801993766892315d0     0.749987153755059d0     0.238669098461250d0
N1       0.869162987514841d0     0.568183414479806d0     0.741950869918696d0
C1       0.996091042071799d0     0.438507460335913d0     0.716917769253196d0
H1       0.114339043949127d0     0.374977387008399d0     0.743571428111531d0
H1       0.758069764685591d0     0.652993496366562d0     0.721957735070699d0
H1       0.884567197592734d0     0.610534041568165d0     0.780807442604438d0
O1       0.510442649591394d0     0.975513498867818d0     0.721951472958409d0
H1       0.444171151119363d0     0.092699489661909d0     0.741771014981290d0
K_POINTS automatic
4 4 1  0 0 0 
