&CONTROL
  calculation='relax',
  prefix='calc',
  pseudo_dir='/storage/coda1/p-amedford6/0/shared/rich_project_chbe-medford/medford-share/data/pseudos_module/espresso/nninc/pbe/van',
  outdir='.',
  tefield=.true.,
  dipfield=.true.,
  tprnfor=.true.,
  disk_io='none',
/
&SYSTEM
  ibrav=0,
  celldm(1)=1.8897261245650618d0,
  nat=53,
  ntyp=5,
  ecutwfc=29.39945797996531d00,
  ecutrho=293.9945797996531d00,
  nbnd=207,
  occupations='smearing',
  smearing='fd',
  degauss=0.007349864494991328d00,
  input_dft='BEEF-vdW',
  edir=3,
  emaxpos=0.05207471931492047d00,
  eopreg=0.025d00,
  eamp=0.0d00,
  nosym=.false.,
  noinv=.false.,
  nosym_evc=.false.,
  no_t_rev=.false.,
/
&ELECTRONS
  diagonalization='david',
  conv_thr=7.349864494991327e-08,
  mixing_beta=0.05d00,
  electron_maxstep=1000,
  startingwfc='atomic',
/
&IONS
  ion_dynamics='ipi',
/
&CELL
  cell_dynamics='ipi',
/
CELL_PARAMETERS alat
    6.579727202290808d0     0.000000000000000d0     0.000000000000000d0
   -0.000775132442404d0     5.961596420607155d0     0.000000000000000d0
    0.000000000000000d0    -0.000000000000000d0    25.155947251439940d0
ATOMIC_SPECIES
Ti1 47.867d00 Ti.UPF
O1 15.999d00 O.UPF
N1 14.007d00 N.UPF
C1 12.011d00 C.UPF
H1 1.008d00 H.UPF
ATOMIC_POSITIONS {crystal}
Ti1      0.000123603383822d0     0.499897385958536d0     0.238512187198856d0
Ti1      0.500142521004230d0     0.250038178055688d0     0.238522014307695d0
O1       0.000095322930372d0     0.000084774873452d0     0.317452257936818d0
O1       0.500112315057126d0     0.000084209992886d0     0.290342007718641d0
O1       0.698270105622955d0     0.250236102495782d0     0.369213011426276d0
O1       0.301995368073695d0     0.249987007385122d0     0.369214717028816d0
Ti1      0.500198167309398d0     0.485761668506182d0     0.364758343030283d0
Ti1      0.000261424674789d0     0.248709163236136d0     0.368424970923767d0
O1       0.504903528100951d0     0.998528953203968d0     0.456235838354009d0
O1       0.001882992193933d0     0.999479849154423d0     0.422099495650131d0
O1       0.200012787946654d0     0.251970255257398d0     0.505661789711172d0
O1       0.814183892187320d0     0.247630529923462d0     0.506575035784245d0
Ti1      0.998917007466435d0     0.499947090481140d0     0.496543149217578d0
Ti1      0.499268662556408d0     0.246759037474621d0     0.502183465255834d0
O1       0.002395179838267d0     0.994035867678419d0     0.590744051446651d0
O1       0.500435976232737d0     0.998188774074327d0     0.559879387291185d0
O1       0.681019886070251d0     0.247550717396107d0     0.649381556606054d0
O1       0.303574876280221d0     0.246407126115179d0     0.645030166543631d0
Ti1      0.506758211647220d0     0.498022257924494d0     0.632825526243021d0
Ti1      0.003175670322232d0     0.221388360694870d0     0.641599625182910d0
O1       0.500093721748991d0     0.000084921243389d0     0.186906639369252d0
O1       0.988106910177045d0     0.997206518271708d0     0.692039991357050d0
O1       0.198268504441574d0     0.250236248865719d0     0.238667392858710d0
O1       0.801993766892314d0     0.249987153755059d0     0.238669098461250d0
Ti1      0.000123603383822d0     0.999897385958536d0     0.238512187198856d0
Ti1      0.500142521004230d0     0.750038178055688d0     0.238522014307695d0
O1       0.000095322930372d0     0.500084774873452d0     0.317452257936818d0
O1       0.500112315057126d0     0.500084209992886d0     0.290342007718641d0
O1       0.698270105622955d0     0.750236102495782d0     0.369213011426276d0
O1       0.301995368073695d0     0.749987007385122d0     0.369214717028816d0
Ti1      0.500001644927041d0     0.985370751416071d0     0.364779031055315d0
Ti1      0.000183276761494d0     0.748948988039575d0     0.368476322807288d0
O1       0.507816341781599d0     0.497438331052421d0     0.455931749825641d0
O1       0.001460782485842d0     0.499964783615161d0     0.422656139091726d0
O1       0.199880088574571d0     0.745163508786456d0     0.505350988868743d0
O1       0.814134357103965d0     0.748845905055801d0     0.506153194813414d0
Ti1      0.998532305476001d0     0.999429259077320d0     0.498673200558157d0
Ti1      0.499439949522497d0     0.746173494725128d0     0.501773878988447d0
O1       0.981325521502820d0     0.495670284319417d0     0.604927803117403d0
O1       0.509355212067834d0     0.499300000790743d0     0.560410227881799d0
O1       0.679952867544784d0     0.747780705669325d0     0.649819995211287d0
O1       0.304393850611188d0     0.746117116740210d0     0.644817479300461d0
Ti1      0.488681325520395d0     0.999034545596187d0     0.632557670191046d0
Ti1      0.002647689733664d0     0.765945025703902d0     0.641460486473417d0
O1       0.500093721748991d0     0.500084921243389d0     0.186906639369252d0
O1       0.198268504441574d0     0.750236248865719d0     0.238667392858710d0
O1       0.801993766892315d0     0.749987153755059d0     0.238669098461250d0
N1       0.102453474411110d0     0.490520985256305d0     0.905554087580898d0
C1       0.120748766330393d0     0.509013705261695d0     0.751308123223167d0
H1       0.041047065124295d0     0.667993441886339d0     0.752933053558334d0
H1       0.037472255122982d0     0.355949248621023d0     0.756661488490432d0
H1       0.277135717405704d0     0.507694489861831d0     0.766310548843059d0
N1       0.940668426576619d0     0.493391019032507d0     0.917242799260589d0
K_POINTS automatic
4 4 1  0 0 0 
