&CONTROL
  calculation='relax',
  prefix='calc',
  pseudo_dir='/storage/coda1/p-amedford6/0/shared/rich_project_chbe-medford/medford-share/data/pseudos_module/espresso/nninc/pbe/van',
  outdir='.',
  tefield=.true.,
  dipfield=.true.,
  tprnfor=.true.,
  disk_io='none',
/
&SYSTEM
  ibrav=0,
  celldm(1)=1.8897261245650618d0,
  nat=49,
  ntyp=4,
  ecutwfc=29.39945797996531d00,
  ecutrho=293.9945797996531d00,
  nbnd=203,
  occupations='smearing',
  smearing='fd',
  degauss=0.007349864494991328d00,
  input_dft='BEEF-vdW',
  edir=3,
  emaxpos=0.9641835964801403d00,
  eopreg=0.025d00,
  eamp=0.0d00,
  nosym=.false.,
  noinv=.false.,
  nosym_evc=.false.,
  no_t_rev=.false.,
/
&ELECTRONS
  diagonalization='david',
  conv_thr=7.349864494991327e-08,
  mixing_beta=0.05d00,
  electron_maxstep=1000,
  startingpot='file',
  startingwfc='atomic',
/
&IONS
  ion_dynamics='ipi',
/
&CELL
  cell_dynamics='ipi',
/
CELL_PARAMETERS alat
    6.579727202290808d0     0.000000000000000d0     0.000000000000000d0
   -0.000775132442404d0     5.961596420607155d0     0.000000000000000d0
    0.000000000000000d0    -0.000000000000000d0    25.155947251439940d0
ATOMIC_SPECIES
Ti1 47.867d00 Ti.UPF
O1 15.999d00 O.UPF
N1 14.007d00 N.UPF
C1 12.011d00 C.UPF
ATOMIC_POSITIONS {crystal}
Ti1      0.000123603383822d0     0.499897385958536d0     0.238512187198856d0
Ti1      0.500142521004230d0     0.250038178055688d0     0.238522014307695d0
O1       0.000095322930372d0     0.000084774873452d0     0.317452257936818d0
O1       0.500112315057126d0     0.000084209992886d0     0.290342007718641d0
O1       0.698270105622955d0     0.250236102495782d0     0.369213011426276d0
O1       0.301995368073695d0     0.249987007385122d0     0.369214717028816d0
Ti1      0.500198167309398d0     0.485761668506182d0     0.364758343030283d0
Ti1      0.000261424674789d0     0.248709163236136d0     0.368424970923767d0
O1       0.500237822508739d0     0.998499097907792d0     0.450630477275713d0
O1       0.001882992193933d0     0.999479849154423d0     0.422099495650131d0
O1       0.195474234685897d0     0.247687902677945d0     0.501873056272070d0
O1       0.801691849305858d0     0.248140012917445d0     0.501535514171527d0
Ti1      0.009235786066189d0     0.496250475509154d0     0.502575670708317d0
Ti1      0.513402054855990d0     0.247518587923242d0     0.496359496933201d0
O1       0.999316536440326d0     0.003254885009673d0     0.582496296101164d0
O1       0.499653368388977d0     0.000393128434383d0     0.553335125363478d0
O1       0.688912745745795d0     0.253961620545188d0     0.637596459037373d0
O1       0.309735723961711d0     0.253377772079342d0     0.637592003534117d0
Ti1      0.498198548010851d0     0.503193775529190d0     0.624553322955074d0
Ti1      0.997581414759313d0     0.247799176235547d0     0.630213225844070d0
O1       0.500093721748991d0     0.000084921243389d0     0.186906639369252d0
O1       0.998185396384000d0     0.004743940404223d0     0.682304894849651d0
O1       0.198268504441574d0     0.250236248865719d0     0.238667392858710d0
O1       0.801993766892314d0     0.249987153755059d0     0.238669098461250d0
Ti1      0.000123603383822d0     0.999897385958536d0     0.238512187198856d0
Ti1      0.500142521004230d0     0.750038178055688d0     0.238522014307695d0
O1       0.000095322930372d0     0.500084774873452d0     0.317452257936818d0
O1       0.500112315057126d0     0.500084209992886d0     0.290342007718641d0
O1       0.698270105622955d0     0.750236102495782d0     0.369213011426276d0
O1       0.301995368073695d0     0.749987007385122d0     0.369214717028816d0
Ti1      0.500001644927041d0     0.985370751416071d0     0.364779031055315d0
Ti1      0.000183276761494d0     0.748948988039575d0     0.368476322807288d0
O1       0.500600133222516d0     0.499300415910071d0     0.450630590861480d0
O1       0.001460782485842d0     0.499964783615161d0     0.422656139091726d0
O1       0.195200386880919d0     0.749498201332710d0     0.502379816787153d0
O1       0.802465094991642d0     0.750207958554572d0     0.502017588040979d0
Ti1      0.009679433737183d0     0.995774362813351d0     0.498005908287432d0
Ti1      0.513644319117002d0     0.747537925504894d0     0.496602377660462d0
O1       0.999603127013922d0     0.492711736932918d0     0.582966832511906d0
O1       0.499524594172076d0     0.500655406258046d0     0.552946519962030d0
O1       0.688661066847857d0     0.752293889771236d0     0.638148481801387d0
O1       0.309450428260243d0     0.752848941231719d0     0.638085406563366d0
Ti1      0.498290855170936d0     0.003057187230633d0     0.624987678550271d0
Ti1      0.998118478363033d0     0.777873585993311d0     0.639109163678340d0
O1       0.500093721748991d0     0.500084921243389d0     0.186906639369252d0
O1       0.198268504441574d0     0.750236248865719d0     0.238667392858710d0
O1       0.801993766892315d0     0.749987153755059d0     0.238669098461250d0
N1       0.000430500184970d0     0.501608808410298d0     0.694664263335544d0
C1       0.004081112072286d0     0.492630543600117d0     0.741460553591028d0
K_POINTS automatic
4 4 1  0 0 0 
