&CONTROL
  calculation='relax',
  prefix='calc',
  pseudo_dir='/storage/coda1/p-amedford6/0/shared/rich_project_chbe-medford/medford-share/data/pseudos_module/espresso/nninc/pbe/van',
  outdir='.',
  tefield=.true.,
  dipfield=.true.,
  tprnfor=.true.,
  disk_io='none',
/
&SYSTEM
  ibrav=0,
  celldm(1)=1.8897261245650618d0,
  nat=55,
  ntyp=5,
  ecutwfc=29.39945797996531d00,
  ecutrho=293.9945797996531d00,
  nbnd=208,
  occupations='smearing',
  smearing='fd',
  degauss=0.007349864494991328d00,
  nspin=2,
  starting_magnetization(1)=0.0d00,
  starting_magnetization(2)=0.0d00,
  starting_magnetization(3)=0.0d00,
  starting_magnetization(4)=0.025d00,
  starting_magnetization(5)=0.0d00,
  input_dft='BEEF-vdW',
  edir=3,
  emaxpos=0.9766540495768283d00,
  eopreg=0.025d00,
  eamp=0.0d00,
  nosym=.false.,
  noinv=.false.,
  nosym_evc=.false.,
  no_t_rev=.false.,
/
&ELECTRONS
  diagonalization='david',
  conv_thr=7.349864494991327e-08,
  mixing_beta=0.05d00,
  electron_maxstep=1000,
  startingpot='file',
  startingwfc='atomic',
/
&IONS
  ion_dynamics='ipi',
/
&CELL
  cell_dynamics='ipi',
/
CELL_PARAMETERS alat
    6.579727202290808d0     0.000000000000000d0     0.000000000000000d0
   -0.000775132442404d0     5.961596420607155d0     0.000000000000000d0
    0.000000000000000d0    -0.000000000000000d0    25.155947251439940d0
ATOMIC_SPECIES
Ti1 47.867d00 Ti.UPF
O1 15.999d00 O.UPF
N1 14.007d00 N.UPF
C1 12.011d00 C.UPF
H1 1.008d00 H.UPF
ATOMIC_POSITIONS {crystal}
Ti1      0.000123603383822d0     0.499897385958536d0     0.238512187198856d0
Ti1      0.500142521004230d0     0.250038178055688d0     0.238522014307695d0
O1       0.000095322930372d0     0.000084774873452d0     0.317452257936818d0
O1       0.500112315057126d0     0.000084209992886d0     0.290342007718641d0
O1       0.698270105622955d0     0.250236102495782d0     0.369213011426276d0
O1       0.301995368073695d0     0.249987007385122d0     0.369214717028816d0
Ti1      0.500198167309398d0     0.485761668506182d0     0.364758343030283d0
Ti1      0.000261424674789d0     0.248709163236136d0     0.368424970923767d0
O1       0.501971279122838d0     0.999730221932092d0     0.449496379467906d0
O1       0.001882992193933d0     0.999479849154423d0     0.422099495650131d0
O1       0.200929088775837d0     0.249469534641484d0     0.501441904044484d0
O1       0.807807823408551d0     0.249373717988803d0     0.502001392517015d0
Ti1      0.993161149502795d0     0.504865407475997d0     0.502983568370521d0
Ti1      0.488381551003386d0     0.250135406231200d0     0.495117593372347d0
O1       0.007951184785426d0     0.999110791424115d0     0.583677113372366d0
O1       0.502890520080763d0     0.003592233085167d0     0.551638982590499d0
O1       0.694994299554795d0     0.258528170016646d0     0.640899962040366d0
O1       0.317672552381465d0     0.253524139151277d0     0.635912698279672d0
Ti1      0.506327569521353d0     0.506576701163650d0     0.622027783729366d0
Ti1      0.012046359058660d0     0.236611251078652d0     0.628228963523630d0
O1       0.500093721748991d0     0.000084921243389d0     0.186906639369252d0
O1       0.009322031870562d0     0.003597145766810d0     0.685943115029218d0
O1       0.198268504441574d0     0.250236248865719d0     0.238667392858710d0
O1       0.801993766892314d0     0.249987153755059d0     0.238669098461250d0
Ti1      0.000123603383822d0     0.999897385958536d0     0.238512187198856d0
Ti1      0.500142521004230d0     0.750038178055688d0     0.238522014307695d0
O1       0.000095322930372d0     0.500084774873452d0     0.317452257936818d0
O1       0.500112315057126d0     0.500084209992886d0     0.290342007718641d0
O1       0.698270105622955d0     0.750236102495782d0     0.369213011426276d0
O1       0.301995368073695d0     0.749987007385122d0     0.369214717028816d0
Ti1      0.500001644927041d0     0.985370751416071d0     0.364779031055315d0
Ti1      0.000183276761494d0     0.748948988039575d0     0.368476322807288d0
O1       0.501999959728678d0     0.501427601930281d0     0.449566344523492d0
O1       0.001460782485842d0     0.499964783615161d0     0.422656139091726d0
O1       0.200445248073639d0     0.749303513158857d0     0.501953649784266d0
O1       0.807489484040082d0     0.751145435733442d0     0.502371577174289d0
Ti1      0.993438230053753d0     0.003265644543267d0     0.498745412201861d0
Ti1      0.488800149610012d0     0.750693229266987d0     0.495363200881539d0
O1       0.002601797166877d0     0.493274777791931d0     0.585328593576246d0
O1       0.503872527452469d0     0.500242843929955d0     0.551030649249639d0
O1       0.694742209251974d0     0.756990750550434d0     0.632966562606876d0
O1       0.323233753822933d0     0.753536614113701d0     0.639185730048340d0
Ti1      0.504919493898546d0     0.003525206986680d0     0.623120180378970d0
Ti1      0.995555960538536d0     0.756588355289916d0     0.647796330061823d0
O1       0.500093721748991d0     0.500084921243389d0     0.186906639369252d0
O1       0.198268504441574d0     0.750236248865719d0     0.238667392858710d0
O1       0.801993766892315d0     0.749987153755059d0     0.238669098461250d0
N1       0.056828675022230d0     0.500890786335133d0     0.699788021944536d0
C1       0.206450055026397d0     0.457958898716272d0     0.741104305530430d0
H1       0.229999903957484d0     0.607780985044393d0     0.765789934093122d0
H1       0.157411599516424d0     0.318344969509045d0     0.766401459784404d0
H1       0.350607884169287d0     0.410515427980697d0     0.723435596071974d0
N1       0.871325220268078d0     0.580318019561759d0     0.720997014973980d0
H1       0.888214028572194d0     0.675441540075214d0     0.754289538289515d0
H1       0.765672245789682d0     0.455327167556267d0     0.725695508426139d0
K_POINTS automatic
4 4 1  0 0 0 
