&CONTROL
  calculation='relax',
  prefix='calc',
  pseudo_dir='/storage/coda1/p-amedford6/0/shared/rich_project_chbe-medford/medford-share/data/pseudos_module/espresso/nninc/pbe/van',
  outdir='.',
  tefield=.true.,
  dipfield=.true.,
  tprnfor=.true.,
  disk_io='none',
/
&SYSTEM
  ibrav=0,
  celldm(1)=1.8897261245650618d0,
  nat=50,
  ntyp=4,
  ecutwfc=29.39945797996531d00,
  ecutrho=293.9945797996531d00,
  nbnd=204,
  occupations='smearing',
  smearing='fd',
  degauss=0.007349864494991328d00,
  input_dft='BEEF-vdW',
  edir=3,
  emaxpos=0.9731440481009918d00,
  eopreg=0.025d00,
  eamp=0.0d00,
  nosym=.false.,
  noinv=.false.,
  nosym_evc=.false.,
  no_t_rev=.false.,
/
&ELECTRONS
  diagonalization='david',
  conv_thr=7.349864494991327e-08,
  mixing_beta=0.05d00,
  electron_maxstep=1000,
  startingpot='file',
  startingwfc='atomic',
/
&IONS
  ion_dynamics='ipi',
/
&CELL
  cell_dynamics='ipi',
/
CELL_PARAMETERS alat
    6.579727202290808d0     0.000000000000000d0     0.000000000000000d0
   -0.000775132442404d0     5.961596420607155d0     0.000000000000000d0
    0.000000000000000d0    -0.000000000000000d0    25.155947251439940d0
ATOMIC_SPECIES
O1 15.999d00 O.UPF
Ti1 47.867d00 Ti.UPF
C1 12.011d00 C.UPF
H1 1.008d00 H.UPF
ATOMIC_POSITIONS {crystal}
O1       0.500093721748991d0     0.000084921243389d0     0.186906639369252d0
O1       0.500093721748991d0     0.500084921243389d0     0.186906639369252d0
Ti1      0.000123603383822d0     0.499897385958537d0     0.238512187198856d0
Ti1      0.000123603383822d0     0.999897385958537d0     0.238512187198856d0
Ti1      0.500142521004230d0     0.250038178055688d0     0.238522014307695d0
Ti1      0.500142521004230d0     0.750038178055688d0     0.238522014307695d0
O1       0.198268504441574d0     0.250236248865719d0     0.238667392858710d0
O1       0.198268504441574d0     0.750236248865719d0     0.238667392858710d0
O1       0.801993766892314d0     0.249987153755059d0     0.238669098461250d0
O1       0.801993766892315d0     0.749987153755059d0     0.238669098461250d0
O1       0.500112315057126d0     0.000084209992886d0     0.290342007718641d0
O1       0.500112315057126d0     0.500084209992886d0     0.290342007718641d0
O1       0.000095322930372d0     0.000084774873452d0     0.317452257936818d0
O1       0.000095322930372d0     0.500084774873452d0     0.317452257936818d0
Ti1      0.501082807022857d0     0.009475869923630d0     0.363870208369869d0
Ti1      0.503748541554795d0     0.508718910207109d0     0.364015333889927d0
Ti1      0.003633495749116d0     0.761036010755601d0     0.368045812798022d0
Ti1      0.003053909165994d0     0.271276573955022d0     0.372175751406266d0
O1       0.698270105622955d0     0.250236102495782d0     0.369213011426276d0
O1       0.698270105622955d0     0.750236102495782d0     0.369213011426276d0
O1       0.301995368073695d0     0.249987007385122d0     0.369214717028816d0
O1       0.301995368073695d0     0.749987007385122d0     0.369214717028816d0
O1       0.000960129385099d0     0.002066175577587d0     0.421509685455321d0
O1       0.000729900092105d0     0.502235184810842d0     0.420521160107786d0
O1       0.501145673602280d0     0.502959098801437d0     0.451265557592834d0
O1       0.500974569351973d0     0.002958370123306d0     0.451358622204261d0
Ti1      0.004602410241619d0     0.004713489342738d0     0.496747769962284d0
Ti1      0.506384232366427d0     0.753718736320817d0     0.496611590334016d0
Ti1      0.506354834189954d0     0.253962694928759d0     0.496794763973396d0
Ti1      0.004568480764803d0     0.505087652334520d0     0.508472531934210d0
O1       0.196679401998134d0     0.753103437412641d0     0.502538765879257d0
O1       0.196449580010628d0     0.252956787724322d0     0.502523051906849d0
O1       0.804369624858547d0     0.753023997547367d0     0.502522516072190d0
O1       0.804547920145136d0     0.252738774779025d0     0.502484021210488d0
O1       0.501176189694407d0     0.502420382674443d0     0.553877638769334d0
O1       0.501074273635769d0     0.003655397547233d0     0.554781840346593d0
O1       0.001662519056586d0     0.001861594121241d0     0.583863294453553d0
O1       0.001724591483494d0     0.504270710741369d0     0.584888701119926d0
Ti1      0.502643183137754d0     0.502887667034396d0     0.625189529455733d0
Ti1      0.502888068897401d0     0.003231985384814d0     0.626165463618362d0
Ti1      0.004473248150513d0     0.762326035952692d0     0.634041718191797d0
Ti1      0.003418888459737d0     0.225297714408204d0     0.636922419811465d0
O1       0.691543492375964d0     0.750602311040011d0     0.639221014067325d0
O1       0.692136482906114d0     0.253881244813791d0     0.640136934729775d0
O1       0.310360952795878d0     0.254489301560896d0     0.640378649680817d0
O1       0.310264703870412d0     0.749651485813601d0     0.639650021902224d0
O1       0.001464872780967d0     0.000856954600583d0     0.683870005745891d0
O1       0.995489116477659d0     0.511208818982935d0     0.694734739180021d0
C1       0.973775416693609d0     0.509987680428238d0     0.744834993869435d0
H1       0.973190467332084d0     0.330659605056675d0     0.759381456832731d0
K_POINTS automatic
4 4 1  0 0 0 
