&CONTROL
  calculation='relax',
  prefix='calc',
  pseudo_dir='/storage/coda1/p-amedford6/0/shared/rich_project_chbe-medford/medford-share/data/pseudos_module/espresso/nninc/pbe/van',
  outdir='.',
  tefield=.true.,
  dipfield=.true.,
  tprnfor=.true.,
  disk_io='none',
/
&SYSTEM
  ibrav=0,
  celldm(1)=1.8897261245650618d0,
  nat=55,
  ntyp=5,
  ecutwfc=29.39945797996531d00,
  ecutrho=293.9945797996531d00,
  nbnd=211,
  occupations='smearing',
  smearing='fd',
  degauss=0.007349864494991328d00,
  input_dft='BEEF-vdW',
  edir=3,
  emaxpos=0.002327092729974334d00,
  eopreg=0.025d00,
  eamp=0.0d00,
  nosym=.false.,
  noinv=.false.,
  nosym_evc=.false.,
  no_t_rev=.false.,
/
&ELECTRONS
  diagonalization='david',
  conv_thr=7.349864494991327e-08,
  mixing_beta=0.05d00,
  electron_maxstep=1000,
  startingpot='file',
  startingwfc='atomic',
/
&IONS
  ion_dynamics='ipi',
/
&CELL
  cell_dynamics='ipi',
/
CELL_PARAMETERS alat
    6.579727202290808d0     0.000000000000000d0     0.000000000000000d0
   -0.000775132442404d0     5.961596420607155d0     0.000000000000000d0
    0.000000000000000d0    -0.000000000000000d0    25.155947251439940d0
ATOMIC_SPECIES
Ti1 47.867d00 Ti.UPF
O1 15.999d00 O.UPF
N1 14.007d00 N.UPF
C1 12.011d00 C.UPF
H1 1.008d00 H.UPF
ATOMIC_POSITIONS {crystal}
Ti1      0.000123603383822d0     0.499897385958536d0     0.238512187198856d0
Ti1      0.500142521004230d0     0.250038178055688d0     0.238522014307695d0
O1       0.000095322930372d0     0.000084774873452d0     0.317452257936818d0
O1       0.500112315057126d0     0.000084209992886d0     0.290342007718641d0
O1       0.698270105622955d0     0.250236102495782d0     0.369213011426276d0
O1       0.301995368073695d0     0.249987007385122d0     0.369214717028816d0
Ti1      0.500198167309398d0     0.485761668506182d0     0.364758343030283d0
Ti1      0.000261424674789d0     0.248709163236136d0     0.368424970923767d0
O1       0.499501047492432d0     0.004104028328364d0     0.447895012219305d0
O1       0.001882992193933d0     0.999479849154423d0     0.422099495650131d0
O1       0.195342359278417d0     0.249617928666809d0     0.502006092595921d0
O1       0.802817908527475d0     0.249247265554110d0     0.501829437430299d0
Ti1      0.999459370042963d0     0.523799916233612d0     0.503194644578717d0
Ti1      0.498661737688576d0     0.260889672910738d0     0.493598979187776d0
O1       0.997479309791743d0     0.000337793213123d0     0.583014948663583d0
O1       0.498140827770004d0     0.994400954025414d0     0.551120394337678d0
O1       0.687705245227888d0     0.261830533050883d0     0.635680249239408d0
O1       0.308846626516328d0     0.260091707794080d0     0.637361363772053d0
Ti1      0.496358641249415d0     0.505563279638932d0     0.621791803763454d0
Ti1      0.983380918264323d0     0.264693124483279d0     0.628000133452494d0
O1       0.500093721748991d0     0.000084921243389d0     0.186906639369252d0
O1       0.995032168326420d0     0.012815826004263d0     0.685669253646851d0
O1       0.198268504441574d0     0.250236248865719d0     0.238667392858710d0
O1       0.801993766892314d0     0.249987153755059d0     0.238669098461250d0
Ti1      0.000123603383822d0     0.999897385958536d0     0.238512187198856d0
Ti1      0.500142521004230d0     0.750038178055688d0     0.238522014307695d0
O1       0.000095322930372d0     0.500084774873452d0     0.317452257936818d0
O1       0.500112315057126d0     0.500084209992886d0     0.290342007718641d0
O1       0.698270105622955d0     0.750236102495782d0     0.369213011426276d0
O1       0.301995368073695d0     0.749987007385122d0     0.369214717028816d0
Ti1      0.500001644927041d0     0.985370751416071d0     0.364779031055315d0
Ti1      0.000183276761494d0     0.748948988039575d0     0.368476322807288d0
O1       0.499412398074376d0     0.492723575973200d0     0.446993715362474d0
O1       0.001460782485842d0     0.499964783615161d0     0.422656139091726d0
O1       0.194264627351939d0     0.750842861965700d0     0.501503994139364d0
O1       0.803916365621667d0     0.751034625782046d0     0.501286792446613d0
Ti1      0.998857062344416d0     0.021409045603495d0     0.503179523611742d0
Ti1      0.498984822171499d0     0.780213596218379d0     0.502649098855933d0
O1       0.997078974521451d0     0.502958897723096d0     0.581975016958194d0
O1       0.498331528820126d0     0.503602572509237d0     0.550728002780980d0
O1       0.685993997300584d0     0.749461773880967d0     0.640428155596899d0
O1       0.305097647211451d0     0.750012241108061d0     0.639103919110410d0
Ti1      0.484506309194505d0     0.007086151839601d0     0.647773742633036d0
Ti1      0.991608096121619d0     0.784290822476985d0     0.642291252857758d0
O1       0.500093721748991d0     0.500084921243389d0     0.186906639369252d0
O1       0.198268504441574d0     0.750236248865719d0     0.238667392858710d0
O1       0.801993766892315d0     0.749987153755059d0     0.238669098461250d0
N1       0.022400338149221d0     0.434107836689269d0     0.737842102858160d0
N1       0.999773595325946d0     0.492448235923051d0     0.688565784202437d0
C1       0.039599745772004d0     0.561137047855542d0     0.780378809900144d0
H1       0.055186836527708d0     0.478035902926233d0     0.817747546090696d0
H1       0.037546038274108d0     0.740985598494066d0     0.775803350255272d0
H1       0.026972873062260d0     0.261878595565344d0     0.743052538083400d0
O1       0.491304284186396d0     0.015489630684541d0     0.721391432349914d0
H1       0.550422052468449d0     0.885774078045947d0     0.738639758212371d0
K_POINTS automatic
4 4 1  0 0 0 
