&CONTROL
  calculation='relax',
  prefix='calc',
  pseudo_dir='/storage/coda1/p-amedford6/0/shared/rich_project_chbe-medford/medford-share/data/pseudos_module/espresso/nninc/pbe/van',
  outdir='.',
  tefield=.true.,
  dipfield=.true.,
  tprnfor=.true.,
  disk_io='none',
/
&SYSTEM
  ibrav=0,
  celldm(1)=1.8897261245650618d0,
  nat=56,
  ntyp=5,
  ecutwfc=29.39945797996531d00,
  ecutrho=293.9945797996531d00,
  nbnd=211,
  occupations='smearing',
  smearing='fd',
  degauss=0.007349864494991328d00,
  input_dft='BEEF-vdW',
  edir=3,
  emaxpos=0.9919945116140974d00,
  eopreg=0.025d00,
  eamp=0.0d00,
  nosym=.false.,
  noinv=.false.,
  nosym_evc=.false.,
  no_t_rev=.false.,
/
&ELECTRONS
  diagonalization='david',
  conv_thr=7.349864494991327e-08,
  mixing_beta=0.05d00,
  electron_maxstep=1000,
  startingpot='file',
  startingwfc='atomic',
/
&IONS
  ion_dynamics='ipi',
/
&CELL
  cell_dynamics='ipi',
/
CELL_PARAMETERS alat
    6.579727202290808d0     0.000000000000000d0     0.000000000000000d0
   -0.000775132442404d0     5.961596420607155d0     0.000000000000000d0
    0.000000000000000d0    -0.000000000000000d0    25.155947251439940d0
ATOMIC_SPECIES
Ti1 47.867d00 Ti.UPF
O1 15.999d00 O.UPF
N1 14.007d00 N.UPF
C1 12.011d00 C.UPF
H1 1.008d00 H.UPF
ATOMIC_POSITIONS {crystal}
Ti1      0.000123603383822d0     0.499897385958536d0     0.238512187198856d0
Ti1      0.500142521004230d0     0.250038178055688d0     0.238522014307695d0
O1       0.000095322930372d0     0.000084774873452d0     0.317452257936818d0
O1       0.500112315057126d0     0.000084209992886d0     0.290342007718641d0
O1       0.698270105622955d0     0.250236102495782d0     0.369213011426276d0
O1       0.301995368073695d0     0.249987007385122d0     0.369214717028816d0
Ti1      0.500198167309398d0     0.485761668506182d0     0.364758343030283d0
Ti1      0.000261424674789d0     0.248709163236136d0     0.368424970923767d0
O1       0.500637069413955d0     0.998995213509121d0     0.450298164678191d0
O1       0.001882992193933d0     0.999479849154423d0     0.422099495650131d0
O1       0.197102112735637d0     0.251960513720827d0     0.501437516132857d0
O1       0.805470713019238d0     0.250327151756543d0     0.502234617577820d0
Ti1      0.995085392445334d0     0.494382829718184d0     0.500075479899783d0
Ti1      0.490974870348490d0     0.244452248241864d0     0.497229057315542d0
O1       0.007991683468131d0     0.002310018071563d0     0.582109613675231d0
O1       0.497109254186689d0     0.005077722092335d0     0.553462338438822d0
O1       0.693487896000264d0     0.266718433453018d0     0.636251137031152d0
O1       0.310644401373624d0     0.252294448631581d0     0.639069762885119d0
Ti1      0.502557952686957d0     0.500294127284454d0     0.622594403888129d0
Ti1      0.997135206274243d0     0.221319847732226d0     0.635178391624566d0
O1       0.500093721748991d0     0.000084921243389d0     0.186906639369252d0
O1       0.970603064124367d0     0.999555086183252d0     0.682187396242828d0
O1       0.198268504441574d0     0.250236248865719d0     0.238667392858710d0
O1       0.801993766892314d0     0.249987153755059d0     0.238669098461250d0
Ti1      0.000123603383822d0     0.999897385958536d0     0.238512187198856d0
Ti1      0.500142521004230d0     0.750038178055688d0     0.238522014307695d0
O1       0.000095322930372d0     0.500084774873452d0     0.317452257936818d0
O1       0.500112315057126d0     0.500084209992886d0     0.290342007718641d0
O1       0.698270105622955d0     0.750236102495782d0     0.369213011426276d0
O1       0.301995368073695d0     0.749987007385122d0     0.369214717028816d0
Ti1      0.500001644927041d0     0.985370751416071d0     0.364779031055315d0
Ti1      0.000183276761494d0     0.748948988039575d0     0.368476322807288d0
O1       0.500787152529846d0     0.500103045356722d0     0.450346412712807d0
O1       0.001460782485842d0     0.499964783615161d0     0.422656139091726d0
O1       0.197337259240253d0     0.750242685223290d0     0.501801976580317d0
O1       0.805130982017951d0     0.750347064281556d0     0.502608266659524d0
Ti1      0.994312671810860d0     0.994792538351203d0     0.498320141517912d0
Ti1      0.491048560445025d0     0.747450372375488d0     0.496133643026242d0
O1       0.002555327334851d0     0.501527493563983d0     0.587651073958908d0
O1       0.496860963847901d0     0.499069240749130d0     0.551354988959160d0
O1       0.687202574424785d0     0.747674168086015d0     0.632383544978624d0
O1       0.310326072737686d0     0.752852993615728d0     0.636885725943379d0
Ti1      0.490006238325330d0     0.997263697040916d0     0.627366809602665d0
Ti1      0.993381002176404d0     0.750393175971948d0     0.631960623963537d0
O1       0.500093721748991d0     0.500084921243389d0     0.186906639369252d0
O1       0.198268504441574d0     0.750236248865719d0     0.238667392858710d0
O1       0.801993766892315d0     0.749987153755059d0     0.238669098461250d0
N1       0.032994564163092d0     0.397358520781657d0     0.716179611161632d0
C1       0.075547355613927d0     0.317609819048039d0     0.762757615227171d0
H1       0.085433483971490d0     0.428110445705631d0     0.797082383858942d0
H1       0.096857148417566d0     0.139216606384099d0     0.766713781912040d0
N1       0.998001030955557d0     0.610340329852093d0     0.706594914745563d0
H1       0.010921713849371d0     0.713444608276035d0     0.738927528682753d0
O1       0.556494027713475d0     0.990117685873333d0     0.719361826410430d0
H1       0.707105957833005d0     0.000651143486270d0     0.717279791012218d0
H1       0.510044987921721d0     0.127410468367379d0     0.736020789818014d0
K_POINTS automatic
4 4 1  0 0 0 
