&CONTROL
  calculation='relax',
  prefix='calc',
  pseudo_dir='/storage/coda1/p-amedford6/0/shared/rich_project_chbe-medford/medford-share/data/pseudos_module/espresso/nninc/pbe/van',
  outdir='.',
  tefield=.true.,
  dipfield=.true.,
  tprnfor=.true.,
  disk_io='none',
/
&SYSTEM
  ibrav=0,
  celldm(1)=1.8897261245650618d0,
  nat=55,
  ntyp=5,
  ecutwfc=29.39945797996531d00,
  ecutrho=293.9945797996531d00,
  nbnd=211,
  occupations='smearing',
  smearing='fd',
  degauss=0.007349864494991328d00,
  input_dft='BEEF-vdW',
  edir=3,
  emaxpos=0.025333499094083223d00,
  eopreg=0.025d00,
  eamp=0.0d00,
  nosym=.false.,
  noinv=.false.,
  nosym_evc=.false.,
  no_t_rev=.false.,
/
&ELECTRONS
  diagonalization='david',
  conv_thr=7.349864494991327e-08,
  mixing_beta=0.05d00,
  electron_maxstep=1000,
  startingwfc='atomic',
/
&IONS
  ion_dynamics='ipi',
/
&CELL
  cell_dynamics='ipi',
/
CELL_PARAMETERS alat
    6.579727202290808d0     0.000000000000000d0     0.000000000000000d0
   -0.000775132442404d0     5.961596420607155d0     0.000000000000000d0
    0.000000000000000d0    -0.000000000000000d0    25.155947251439940d0
ATOMIC_SPECIES
Ti1 47.867d00 Ti.UPF
O1 15.999d00 O.UPF
C1 12.011d00 C.UPF
H1 1.008d00 H.UPF
N1 14.007d00 N.UPF
ATOMIC_POSITIONS {crystal}
Ti1      0.000123603383822d0     0.499897385958537d0     0.238512187198856d0
Ti1      0.500142521004230d0     0.250038178055688d0     0.238522014307695d0
O1       0.000095322930372d0     0.000084774873452d0     0.317452257936818d0
O1       0.500112315057126d0     0.000084209992886d0     0.290342007718641d0
O1       0.698270105622955d0     0.250236102495782d0     0.369213011426276d0
O1       0.301995368073695d0     0.249987007385122d0     0.369214717028816d0
Ti1      0.506527710193231d0     0.505659182954995d0     0.363765963566287d0
Ti1      0.008167673092969d0     0.250922536160778d0     0.367907675650796d0
O1       0.498470970265764d0     0.997341159926359d0     0.450392936675934d0
O1       0.999758003325864d0     0.998559453179146d0     0.421386400059829d0
O1       0.195743497972427d0     0.249376035348915d0     0.501199368335178d0
O1       0.801993159876892d0     0.249718523515356d0     0.501170340004895d0
Ti1      0.996695317953093d0     0.502148831783643d0     0.495728761054146d0
Ti1      0.495416017586373d0     0.251382150924036d0     0.495143208346620d0
O1       0.998146675253607d0     0.015944484156523d0     0.581388795644175d0
O1       0.499121836045666d0     0.997398510860157d0     0.553953191638189d0
O1       0.693241642128839d0     0.240856831386833d0     0.642073290488748d0
O1       0.309552482575305d0     0.240444100303614d0     0.640254428971225d0
Ti1      0.500853812015599d0     0.491017184050283d0     0.623689741095018d0
Ti1      0.002177566602577d0     0.234063268948366d0     0.636854197360872d0
O1       0.500093721748991d0     0.000084921243389d0     0.186906639369252d0
O1       0.003417927208933d0     0.964016014433500d0     0.682673060697621d0
O1       0.198268504441574d0     0.250236248865719d0     0.238667392858710d0
O1       0.801993766892314d0     0.249987153755059d0     0.238669098461250d0
Ti1      0.000123603383822d0     0.999897385958537d0     0.238512187198856d0
Ti1      0.500142521004230d0     0.750038178055688d0     0.238522014307695d0
O1       0.000095322930372d0     0.500084774873452d0     0.317452257936818d0
O1       0.500112315057126d0     0.500084209992886d0     0.290342007718641d0
O1       0.698270105622955d0     0.750236102495782d0     0.369213011426276d0
O1       0.301995368073695d0     0.749987007385122d0     0.369214717028816d0
Ti1      0.505857370445307d0     0.005645672244325d0     0.363705917698048d0
Ti1      0.007997318017604d0     0.751529322332044d0     0.367880118854582d0
O1       0.498929182506898d0     0.501388188729287d0     0.449786095830398d0
O1       0.999989619450500d0     0.501209268373839d0     0.421796865205790d0
O1       0.194398639592113d0     0.747293188213186d0     0.503520818998317d0
O1       0.804345294378721d0     0.747764954343567d0     0.503412389125504d0
Ti1      0.995188513176369d0     0.004596392485319d0     0.495743755708160d0
Ti1      0.494141675803201d0     0.750382677703061d0     0.497005935749411d0
O1       0.000326657823769d0     0.485495630947388d0     0.592679300477166d0
O1       0.499392193526100d0     0.492669062795655d0     0.553018114747272d0
O1       0.693039737710860d0     0.736838670639362d0     0.637778143887441d0
O1       0.308934852159014d0     0.737135142032945d0     0.638092700462434d0
Ti1      0.499534066268062d0     0.991681420302648d0     0.625457198069468d0
Ti1      0.994786047316140d0     0.773806168454071d0     0.626824188838875d0
O1       0.500093721748991d0     0.500084921243389d0     0.186906639369252d0
O1       0.198268504441574d0     0.750236248865719d0     0.238667392858710d0
O1       0.801993766892315d0     0.749987153755059d0     0.238669098461250d0
C1       0.991700998020514d0     0.336511743948034d0     0.765321042725756d0
O1       0.029721591246857d0     0.446901985131424d0     0.714968590473284d0
H1       0.998122231304894d0     0.159685813239554d0     0.757021984188872d0
H1       0.058199211217604d0     0.603514354186131d0     0.721686863489636d0
H1       0.110017369470576d0     0.385362491363129d0     0.793398785790975d0
H1       0.841909071044961d0     0.382721100367680d0     0.780166484084391d0
N1       0.954677115530838d0     0.875460296033091d0     0.863760358818914d0
N1       0.910690307247320d0     0.825551435265030d0     0.823167753038781d0
K_POINTS automatic
4 4 1  0 0 0 
