&CONTROL
  calculation='relax',
  prefix='calc',
  pseudo_dir='/storage/coda1/p-amedford6/0/shared/rich_project_chbe-medford/medford-share/data/pseudos_module/espresso/nninc/pbe/van',
  outdir='.',
  tefield=.true.,
  dipfield=.true.,
  tprnfor=.true.,
  disk_io='none',
/
&SYSTEM
  ibrav=0,
  celldm(1)=1.8897261245650618d0,
  nat=55,
  ntyp=5,
  ecutwfc=29.39945797996531d00,
  ecutrho=293.9945797996531d00,
  nbnd=211,
  occupations='smearing',
  smearing='fd',
  degauss=0.007349864494991328d00,
  input_dft='BEEF-vdW',
  edir=3,
  emaxpos=0.9848521396874808d00,
  eopreg=0.025d00,
  eamp=0.0d00,
  nosym=.false.,
  noinv=.false.,
  nosym_evc=.false.,
  no_t_rev=.false.,
/
&ELECTRONS
  diagonalization='david',
  conv_thr=7.349864494991327e-08,
  mixing_beta=0.05d00,
  electron_maxstep=1000,
  startingwfc='atomic',
/
&IONS
  ion_dynamics='ipi',
/
&CELL
  cell_dynamics='ipi',
/
CELL_PARAMETERS alat
    6.579727202290808d0     0.000000000000000d0     0.000000000000000d0
   -0.000775132442404d0     5.961596420607155d0     0.000000000000000d0
    0.000000000000000d0    -0.000000000000000d0    25.155947251439940d0
ATOMIC_SPECIES
Ti1 47.867d00 Ti.UPF
O1 15.999d00 O.UPF
C1 12.011d00 C.UPF
H1 1.008d00 H.UPF
N1 14.007d00 N.UPF
ATOMIC_POSITIONS {crystal}
Ti1      0.000123603383822d0     0.499897385958537d0     0.238512187198856d0
Ti1      0.500142521004230d0     0.250038178055688d0     0.238522014307695d0
O1       0.000095322930372d0     0.000084774873452d0     0.317452257936818d0
O1       0.500112315057126d0     0.000084209992886d0     0.290342007718641d0
O1       0.698270105622955d0     0.250236102495782d0     0.369213011426276d0
O1       0.301995368073695d0     0.249987007385122d0     0.369214717028816d0
Ti1      0.504839473743518d0     0.503556222839526d0     0.363957568810222d0
Ti1      0.006042688438613d0     0.248254836691291d0     0.368329179616619d0
O1       0.498667103164235d0     0.999168661084845d0     0.451857912169996d0
O1       0.999653886046725d0     0.999506858954544d0     0.421760246822347d0
O1       0.195132884322197d0     0.249103775523659d0     0.503110000754184d0
O1       0.802731036085066d0     0.249124952782428d0     0.502934560017935d0
Ti1      0.995743893117929d0     0.496797713369992d0     0.498588055868998d0
Ti1      0.494896467651695d0     0.249223656318604d0     0.497163993574328d0
O1       0.998996144921082d0     0.000785866549326d0     0.583945004364296d0
O1       0.499994518916973d0     0.999412456847823d0     0.556336960955689d0
O1       0.689883590607709d0     0.253514348511288d0     0.644025102530722d0
O1       0.307215776154917d0     0.251747243842328d0     0.642761148831670d0
Ti1      0.498637078239998d0     0.498998959988814d0     0.625190009149850d0
Ti1      0.003401380110358d0     0.236065711479397d0     0.632485891515948d0
O1       0.500093721748991d0     0.000084921243389d0     0.186906639369252d0
O1       0.000087931742016d0     0.997512941386545d0     0.684641639713960d0
O1       0.198268504441574d0     0.250236248865719d0     0.238667392858710d0
O1       0.801993766892314d0     0.249987153755059d0     0.238669098461250d0
Ti1      0.000123603383822d0     0.999897385958537d0     0.238512187198856d0
Ti1      0.500142521004230d0     0.750038178055688d0     0.238522014307695d0
O1       0.000095322930372d0     0.500084774873452d0     0.317452257936818d0
O1       0.500112315057126d0     0.500084209992886d0     0.290342007718641d0
O1       0.698270105622955d0     0.750236102495782d0     0.369213011426276d0
O1       0.301995368073695d0     0.749987007385122d0     0.369214717028816d0
Ti1      0.504497899014794d0     0.003550306809775d0     0.363895858622857d0
Ti1      0.006108258447977d0     0.746219064685047d0     0.368586737962089d0
O1       0.498385259139081d0     0.499331197105298d0     0.451554895460574d0
O1       0.999712717902155d0     0.499701031191826d0     0.422590673867455d0
O1       0.194965335668747d0     0.749080524326774d0     0.503261512892290d0
O1       0.802851527169320d0     0.748647559292585d0     0.503089499882854d0
Ti1      0.996568103952158d0     0.996653308411621d0     0.496372098124626d0
Ti1      0.495047129310301d0     0.748714656666819d0     0.497178525460604d0
O1       0.998594438078839d0     0.497042590405138d0     0.591143519522654d0
O1       0.499002785735364d0     0.498727820626928d0     0.554301213377439d0
O1       0.690789929153055d0     0.744232460977334d0     0.643114974444041d0
O1       0.308037845880262d0     0.745663336230243d0     0.642870673730691d0
Ti1      0.501893508675447d0     0.998807411996274d0     0.627516889241787d0
Ti1      0.002141314614723d0     0.774293542162211d0     0.635231600320598d0
O1       0.500093721748991d0     0.500084921243389d0     0.186906639369252d0
O1       0.198268504441574d0     0.750236248865719d0     0.238667392858710d0
O1       0.801993766892315d0     0.749987153755059d0     0.238669098461250d0
C1       0.105492915036265d0     0.491261001409424d0     0.751848664993904d0
O1       0.983037641578453d0     0.496177238756888d0     0.703872878933380d0
H1       0.262523637142933d0     0.479537903006238d0     0.739177038068785d0
H1       0.839466062038919d0     0.492427320165768d0     0.713045526325076d0
H1       0.081455901943933d0     0.646142162272043d0     0.773980923608244d0
H1       0.065390357924497d0     0.344014343023380d0     0.775270066663085d0
N1       0.577226398245082d0     0.012215539625096d0     0.782797640005709d0
N1       0.604171079499971d0     0.834329482988220d0     0.772848775803085d0
K_POINTS automatic
4 4 1  0 0 0 
