&CONTROL
  calculation='relax',
  prefix='calc',
  pseudo_dir='/storage/coda1/p-amedford6/0/shared/rich_project_chbe-medford/medford-share/data/pseudos_module/espresso/nninc/pbe/van',
  outdir='.',
  tefield=.true.,
  dipfield=.true.,
  tprnfor=.true.,
  disk_io='none',
/
&SYSTEM
  ibrav=0,
  celldm(1)=1.8897261245650618d0,
  nat=56,
  ntyp=5,
  ecutwfc=29.39945797996531d00,
  ecutrho=293.9945797996531d00,
  nbnd=214,
  occupations='smearing',
  smearing='fd',
  degauss=0.007349864494991328d00,
  input_dft='BEEF-vdW',
  edir=3,
  emaxpos=0.9994650076824767d00,
  eopreg=0.025d00,
  eamp=0.0d00,
  nosym=.false.,
  noinv=.false.,
  nosym_evc=.false.,
  no_t_rev=.false.,
/
&ELECTRONS
  diagonalization='david',
  conv_thr=7.349864494991327e-08,
  mixing_beta=0.05d00,
  electron_maxstep=1000,
  startingwfc='atomic',
/
&IONS
  ion_dynamics='ipi',
/
&CELL
  cell_dynamics='ipi',
/
CELL_PARAMETERS alat
    6.579727202290808d0     0.000000000000000d0     0.000000000000000d0
   -0.000775132442404d0     5.961596420607155d0     0.000000000000000d0
    0.000000000000000d0    -0.000000000000000d0    25.155947251439940d0
ATOMIC_SPECIES
C1 12.011d00 C.UPF
H1 1.008d00 H.UPF
O1 15.999d00 O.UPF
Ti1 47.867d00 Ti.UPF
N1 14.007d00 N.UPF
ATOMIC_POSITIONS {crystal}
C1       0.679336646285809d0     0.525584929923185d0     0.777882662060553d0
H1       0.535424328943660d0     0.530234750206216d0     0.757318682883347d0
H1       0.889179152595277d0     0.502803163788631d0     0.715342760528361d0
H1       0.732007339929981d0     0.375803023804035d0     0.797718898326661d0
O1       0.000095322930372d0     0.000084774873452d0     0.317452257936818d0
O1       0.500112315057126d0     0.000084209992886d0     0.290342007718641d0
O1       0.698270105622955d0     0.250236102495782d0     0.369213011426276d0
O1       0.301995368073695d0     0.249987007385122d0     0.369214717028816d0
O1       0.496351112841962d0     0.003478337168802d0     0.449856212549733d0
O1       0.000346322171472d0     0.001875478475155d0     0.420709815920200d0
O1       0.191291394664552d0     0.252037376065606d0     0.502200705302675d0
O1       0.802916692546726d0     0.249595621815966d0     0.501071406207754d0
O1       0.991364558713753d0     0.000278052672506d0     0.583150547108145d0
O1       0.496664525108708d0     0.993412910238715d0     0.553399750764905d0
O1       0.684534798400088d0     0.252919723374734d0     0.639096752266256d0
O1       0.299645287702461d0     0.258331536973828d0     0.635696909844673d0
O1       0.500093721748991d0     0.000084921243389d0     0.186906639369252d0
O1       0.001390853416671d0     0.999296238771007d0     0.683335354301616d0
O1       0.198268504441574d0     0.250236248865719d0     0.238667392858710d0
O1       0.801993766892314d0     0.249987153755059d0     0.238669098461250d0
O1       0.000095322930372d0     0.500084774873452d0     0.317452257936818d0
O1       0.500112315057126d0     0.500084209992886d0     0.290342007718641d0
O1       0.698270105622955d0     0.750236102495782d0     0.369213011426276d0
O1       0.301995368073695d0     0.749987007385122d0     0.369214717028816d0
O1       0.497031046101073d0     0.496387560762896d0     0.448733261112024d0
O1       0.000282387750291d0     0.502249383075681d0     0.419083770206462d0
O1       0.191961225042547d0     0.749068097192497d0     0.502444966551690d0
O1       0.804042845130289d0     0.753202323013150d0     0.501128759157864d0
O1       0.991069477059895d0     0.502373581892944d0     0.582611382140627d0
O1       0.502369343282700d0     0.499327886668327d0     0.551553315700202d0
O1       0.683249333312025d0     0.743478008087632d0     0.639906623499980d0
O1       0.299065653803637d0     0.739142932355376d0     0.635356105767923d0
O1       0.500093721748991d0     0.500084921243389d0     0.186906639369252d0
O1       0.198268504441574d0     0.750236248865719d0     0.238667392858710d0
O1       0.801993766892315d0     0.749987153755059d0     0.238669098461250d0
O1       0.994395974490989d0     0.499869012730621d0     0.687510487827649d0
Ti1      0.000123603383822d0     0.499897385958537d0     0.238512187198856d0
Ti1      0.500142521004230d0     0.250038178055688d0     0.238522014307695d0
Ti1      0.504149044073947d0     0.520101265803428d0     0.366351682496114d0
Ti1      0.005985808508172d0     0.262139280766079d0     0.371444101400272d0
Ti1      0.999854749020506d0     0.510915378241944d0     0.508577763632490d0
Ti1      0.491213662715422d0     0.262246573013280d0     0.493756699490869d0
Ti1      0.496595764151240d0     0.494855442782271d0     0.622097284480000d0
Ti1      0.004287038707976d0     0.235346270051051d0     0.637042619872099d0
Ti1      0.000123603383822d0     0.999897385958537d0     0.238512187198856d0
Ti1      0.500142521004230d0     0.750038178055688d0     0.238522014307695d0
Ti1      0.504505086839160d0     0.019410470791559d0     0.364850472277807d0
Ti1      0.006150088410372d0     0.757111383975420d0     0.372005790313949d0
Ti1      0.987999435328757d0     0.010566877842490d0     0.501172375378800d0
Ti1      0.494196366141043d0     0.781185042058925d0     0.503547692907366d0
Ti1      0.505952855484597d0     0.995550003644338d0     0.645441161426987d0
Ti1      0.007617494298173d0     0.760009308091494d0     0.635515726340714d0
N1       0.801779105563577d0     0.884579215497063d0     0.812023375995701d0
N1       0.741440455195742d0     0.716796818512940d0     0.797331850036754d0
O1       0.462179508467688d0     0.997788577435768d0     0.717647273468029d0
H1       0.322729785589484d0     0.017025500866276d0     0.729619848878177d0
K_POINTS automatic
4 4 1  0 0 0 
