&CONTROL
  calculation='relax',
  prefix='calc',
  pseudo_dir='/storage/coda1/p-amedford6/0/shared/rich_project_chbe-medford/medford-share/data/pseudos_module/espresso/nninc/pbe/van',
  outdir='.',
  tefield=.true.,
  dipfield=.true.,
  tprnfor=.true.,
  disk_io='none',
/
&SYSTEM
  ibrav=0,
  celldm(1)=1.8897261245650618d0,
  nat=56,
  ntyp=5,
  ecutwfc=29.39945797996531d00,
  ecutrho=293.9945797996531d00,
  nbnd=209,
  occupations='smearing',
  smearing='fd',
  degauss=0.007349864494991328d00,
  input_dft='BEEF-vdW',
  edir=3,
  emaxpos=0.0430657468356439d00,
  eopreg=0.025d00,
  eamp=0.0d00,
  nosym=.false.,
  noinv=.false.,
  nosym_evc=.false.,
  no_t_rev=.false.,
/
&ELECTRONS
  diagonalization='david',
  conv_thr=7.349864494991327e-08,
  mixing_beta=0.05d00,
  electron_maxstep=1000,
  startingpot='file',
  startingwfc='atomic',
/
&IONS
  ion_dynamics='ipi',
/
&CELL
  cell_dynamics='ipi',
/
CELL_PARAMETERS alat
    6.579727202290808d0     0.000000000000000d0     0.000000000000000d0
   -0.000775132442404d0     5.961596420607155d0     0.000000000000000d0
    0.000000000000000d0    -0.000000000000000d0    25.155947251439940d0
ATOMIC_SPECIES
Ti1 47.867d00 Ti.UPF
O1 15.999d00 O.UPF
N1 14.007d00 N.UPF
C1 12.011d00 C.UPF
H1 1.008d00 H.UPF
ATOMIC_POSITIONS {crystal}
Ti1      0.000123603383822d0     0.499897385958536d0     0.238512187198856d0
Ti1      0.500142521004230d0     0.250038178055688d0     0.238522014307695d0
O1       0.000095322930372d0     0.000084774873452d0     0.317452257936818d0
O1       0.500112315057126d0     0.000084209992886d0     0.290342007718641d0
O1       0.698270105622955d0     0.250236102495782d0     0.369213011426276d0
O1       0.301995368073695d0     0.249987007385122d0     0.369214717028816d0
Ti1      0.500198167309398d0     0.485761668506182d0     0.364758343030283d0
Ti1      0.000261424674789d0     0.248709163236136d0     0.368424970923767d0
O1       0.497513378203638d0     0.996782295978368d0     0.449097464321928d0
O1       0.001882992193933d0     0.999479849154423d0     0.422099495650131d0
O1       0.198026535264815d0     0.246942462327664d0     0.501838659269758d0
O1       0.802256522270316d0     0.246973316843891d0     0.501905136966328d0
Ti1      0.981409080399779d0     0.494954779888918d0     0.507357375881677d0
Ti1      0.478285335136753d0     0.245733432757297d0     0.495663897536987d0
O1       0.997126465591117d0     0.991912783682974d0     0.580056645000846d0
O1       0.498104960141428d0     0.996226121136724d0     0.551714902661209d0
O1       0.682668949802008d0     0.248835538097130d0     0.638180022630431d0
O1       0.310330684491699d0     0.249094048817864d0     0.637667073403415d0
Ti1      0.496723111997785d0     0.497231069501373d0     0.623542774093744d0
Ti1      0.995440261657090d0     0.262375964191600d0     0.640386515474395d0
O1       0.500093721748991d0     0.000084921243389d0     0.186906639369252d0
O1       0.997093201283822d0     0.001358180131398d0     0.683775069434908d0
O1       0.198268504441574d0     0.250236248865719d0     0.238667392858710d0
O1       0.801993766892314d0     0.249987153755059d0     0.238669098461250d0
Ti1      0.000123603383822d0     0.999897385958536d0     0.238512187198856d0
Ti1      0.500142521004230d0     0.750038178055688d0     0.238522014307695d0
O1       0.000095322930372d0     0.500084774873452d0     0.317452257936818d0
O1       0.500112315057126d0     0.500084209992886d0     0.290342007718641d0
O1       0.698270105622955d0     0.750236102495782d0     0.369213011426276d0
O1       0.301995368073695d0     0.749987007385122d0     0.369214717028816d0
Ti1      0.500001644927041d0     0.985370751416071d0     0.364779031055315d0
Ti1      0.000183276761494d0     0.748948988039575d0     0.368476322807288d0
O1       0.497317792161939d0     0.496293813615644d0     0.449042932305883d0
O1       0.001460782485842d0     0.499964783615161d0     0.422656139091726d0
O1       0.198093422922408d0     0.745037615412781d0     0.501699222683481d0
O1       0.802212119931125d0     0.744206137753456d0     0.501825184819181d0
Ti1      0.985423821395362d0     0.994781762077885d0     0.507478264266795d0
Ti1      0.478278744319990d0     0.745584652687503d0     0.495468266587190d0
O1       0.994283564376866d0     0.493238732959035d0     0.582724960484480d0
O1       0.498399134982302d0     0.496842052289793d0     0.551724101342327d0
O1       0.683571202562761d0     0.749397300851859d0     0.638244182246274d0
O1       0.310139209849936d0     0.748930792922094d0     0.638082720968115d0
Ti1      0.495551074594528d0     0.997652558357082d0     0.623637616737833d0
Ti1      0.995350921802435d0     0.761951169145837d0     0.640628210190966d0
O1       0.500093721748991d0     0.500084921243389d0     0.186906639369252d0
O1       0.198268504441574d0     0.750236248865719d0     0.238667392858710d0
O1       0.801993766892315d0     0.749987153755059d0     0.238669098461250d0
N1       0.000304926535839d0     0.499792219829526d0     0.688823047470014d0
C1       0.025621155298757d0     0.515559710469148d0     0.745675212611709d0
H1       0.913008565058060d0     0.629315629883284d0     0.763217658821375d0
H1       0.011688955104990d0     0.351783363436421d0     0.764866446535734d0
H1       0.175844314804251d0     0.585441154619571d0     0.755392085296689d0
N1       0.723488034013846d0     0.304299167054741d0     0.861084662841252d0
H1       0.678906639765214d0     0.466824584715751d0     0.858565822074531d0
H1       0.626671469731160d0     0.214302844595275d0     0.838009224384816d0
H1       0.699387314804376d0     0.254256926757345d0     0.899224854302035d0
K_POINTS automatic
4 4 1  0 0 0 
