&CONTROL
  calculation='relax',
  prefix='calc',
  pseudo_dir='/storage/coda1/p-amedford6/0/shared/rich_project_chbe-medford/medford-share/data/pseudos_module/espresso/nninc/pbe/van',
  outdir='.',
  tefield=.true.,
  dipfield=.true.,
  tprnfor=.true.,
  disk_io='none',
/
&SYSTEM
  ibrav=0,
  celldm(1)=1.8897261245650618d0,
  nat=55,
  ntyp=5,
  ecutwfc=29.39945797996531d00,
  ecutrho=293.9945797996531d00,
  nbnd=211,
  occupations='smearing',
  smearing='fd',
  degauss=0.007349864494991328d00,
  input_dft='BEEF-vdW',
  edir=3,
  emaxpos=0.9671242738062193d00,
  eopreg=0.025d00,
  eamp=0.0d00,
  nosym=.false.,
  noinv=.false.,
  nosym_evc=.false.,
  no_t_rev=.false.,
/
&ELECTRONS
  diagonalization='david',
  conv_thr=7.349864494991327e-08,
  mixing_beta=0.05d00,
  electron_maxstep=1000,
  startingpot='file',
  startingwfc='atomic',
/
&IONS
  ion_dynamics='ipi',
/
&CELL
  cell_dynamics='ipi',
/
CELL_PARAMETERS alat
    6.579727202290808d0     0.000000000000000d0     0.000000000000000d0
   -0.000775132442404d0     5.961596420607155d0     0.000000000000000d0
    0.000000000000000d0    -0.000000000000000d0    25.155947251439940d0
ATOMIC_SPECIES
Ti1 47.867d00 Ti.UPF
O1 15.999d00 O.UPF
N1 14.007d00 N.UPF
C1 12.011d00 C.UPF
H1 1.008d00 H.UPF
ATOMIC_POSITIONS {crystal}
Ti1      0.000123603383822d0     0.499897385958536d0     0.238512187198856d0
Ti1      0.500142521004230d0     0.250038178055688d0     0.238522014307695d0
O1       0.000095322930372d0     0.000084774873452d0     0.317452257936818d0
O1       0.500112315057126d0     0.000084209992886d0     0.290342007718641d0
O1       0.698270105622955d0     0.250236102495782d0     0.369213011426276d0
O1       0.301995368073695d0     0.249987007385122d0     0.369214717028816d0
Ti1      0.500198167309398d0     0.485761668506182d0     0.364758343030283d0
Ti1      0.000261424674789d0     0.248709163236136d0     0.368424970923767d0
O1       0.498024238796409d0     0.000654317636148d0     0.449559935427011d0
O1       0.001882992193933d0     0.999479849154423d0     0.422099495650131d0
O1       0.193210912992961d0     0.246743306858142d0     0.502448079785475d0
O1       0.802072504958037d0     0.252870054630697d0     0.500957762971294d0
Ti1      0.004256102760900d0     0.487898016908714d0     0.504962956242808d0
Ti1      0.509053959489030d0     0.241131734675021d0     0.496287278343405d0
O1       0.988096688731635d0     0.998220823607747d0     0.580702093509561d0
O1       0.508385771538421d0     0.000703415750898d0     0.552829260175666d0
O1       0.692388200703589d0     0.262665027407043d0     0.638108212130737d0
O1       0.301513105403288d0     0.236844843562333d0     0.631768043407842d0
Ti1      0.498981633506462d0     0.491758472864518d0     0.630288935015540d0
Ti1      0.997474155109156d0     0.225394792936019d0     0.635251492796961d0
O1       0.500093721748991d0     0.000084921243389d0     0.186906639369252d0
O1       0.989126543060436d0     0.998479500289356d0     0.681725472435940d0
O1       0.198268504441574d0     0.250236248865719d0     0.238667392858710d0
O1       0.801993766892314d0     0.249987153755059d0     0.238669098461250d0
Ti1      0.000123603383822d0     0.999897385958536d0     0.238512187198856d0
Ti1      0.500142521004230d0     0.750038178055688d0     0.238522014307695d0
O1       0.000095322930372d0     0.500084774873452d0     0.317452257936818d0
O1       0.500112315057126d0     0.500084209992886d0     0.290342007718641d0
O1       0.698270105622955d0     0.750236102495782d0     0.369213011426276d0
O1       0.301995368073695d0     0.749987007385122d0     0.369214717028816d0
Ti1      0.500001644927041d0     0.985370751416071d0     0.364779031055315d0
Ti1      0.000183276761494d0     0.748948988039575d0     0.368476322807288d0
O1       0.499384841959684d0     0.497665625340457d0     0.449185981666296d0
O1       0.001460782485842d0     0.499964783615161d0     0.422656139091726d0
O1       0.193760706839588d0     0.752338888280563d0     0.501817234134527d0
O1       0.802294212472176d0     0.749921011970404d0     0.500664108071939d0
Ti1      0.007434352496016d0     0.988328483774738d0     0.499316948796061d0
Ti1      0.509907672913302d0     0.733857072707087d0     0.499174834667336d0
O1       0.994173723306209d0     0.503514689194597d0     0.581831850989067d0
O1       0.493106138812256d0     0.503709167464315d0     0.551436115498850d0
O1       0.689871406331374d0     0.738540601660167d0     0.638221180280295d0
O1       0.298270096585206d0     0.761255841787455d0     0.630511637990128d0
Ti1      0.489167396930216d0     0.991308492178980d0     0.625694822761869d0
Ti1      0.993001189059497d0     0.753304602049306d0     0.630886114604411d0
O1       0.500093721748991d0     0.500084921243389d0     0.186906639369252d0
O1       0.198268504441574d0     0.750236248865719d0     0.238667392858710d0
O1       0.801993766892315d0     0.749987153755059d0     0.238669098461250d0
N1       0.195627854939159d0     0.508148450863071d0     0.728844634026347d0
C1       0.380063010948315d0     0.508705617898422d0     0.714372604305848d0
H1       0.485699789856862d0     0.533273850298889d0     0.747341908243186d0
N1       0.032560512392780d0     0.501058892100970d0     0.693360657986914d0
H1       0.906200168062092d0     0.501036505588422d0     0.716774257755596d0
O1       0.521274065720554d0     0.995712340854518d0     0.718513233304680d0
H1       0.665384393340381d0     0.022274979724320d0     0.724705801454924d0
H1       0.447736589821169d0     0.121530335386580d0     0.733851146027472d0
K_POINTS automatic
4 4 1  0 0 0 
