&CONTROL
  calculation='relax',
  prefix='calc',
  pseudo_dir='/storage/coda1/p-amedford6/0/shared/rich_project_chbe-medford/medford-share/data/pseudos_module/espresso/nninc/pbe/van',
  outdir='.',
  tefield=.true.,
  dipfield=.true.,
  tprnfor=.true.,
  disk_io='none',
/
&SYSTEM
  ibrav=0,
  celldm(1)=1.8897261245650618d0,
  nat=53,
  ntyp=6,
  ecutwfc=29.39945797996531d00,
  ecutrho=293.9945797996531d00,
  nbnd=207,
  occupations='smearing',
  smearing='fd',
  degauss=0.007349864494991328d00,
  nspin=2,
  starting_magnetization(1)=0.0d00,
  starting_magnetization(2)=0.0d00,
  starting_magnetization(3)=0.04d00,
  starting_magnetization(4)=0.046375d00,
  starting_magnetization(5)=0.0d00,
  starting_magnetization(6)=0.1d00,
  input_dft='BEEF-vdW',
  edir=3,
  emaxpos=0.9937039389868888d00,
  eopreg=0.025d00,
  eamp=0.0d00,
  nosym=.false.,
  noinv=.false.,
  nosym_evc=.false.,
  no_t_rev=.false.,
/
&ELECTRONS
  diagonalization='david',
  conv_thr=7.349864494991327e-08,
  mixing_beta=0.05d00,
  electron_maxstep=1000,
  startingwfc='atomic',
/
&IONS
  ion_dynamics='ipi',
/
&CELL
  cell_dynamics='ipi',
/
CELL_PARAMETERS alat
    6.579727202290808d0     0.000000000000000d0     0.000000000000000d0
   -0.000775132442404d0     5.961596420607155d0     0.000000000000000d0
    0.000000000000000d0    -0.000000000000000d0    25.155947251439940d0
ATOMIC_SPECIES
Ti1 47.867d00 Ti.UPF
O1 15.999d00 O.UPF
N1 14.007d00 N.UPF
C1 12.011d00 C.UPF
H1 1.008d00 H.UPF
H2 1.008d00 H.UPF
ATOMIC_POSITIONS {crystal}
Ti1      0.000123603383822d0     0.499897385958536d0     0.238512187198856d0
Ti1      0.500142521004230d0     0.250038178055688d0     0.238522014307695d0
O1       0.000095322930372d0     0.000084774873452d0     0.317452257936818d0
O1       0.500112315057126d0     0.000084209992886d0     0.290342007718641d0
O1       0.698270105622955d0     0.250236102495782d0     0.369213011426276d0
O1       0.301995368073695d0     0.249987007385122d0     0.369214717028816d0
Ti1      0.500198167309398d0     0.485761668506182d0     0.364758343030283d0
Ti1      0.000261424674789d0     0.248709163236136d0     0.368424970923767d0
O1       0.504955245196229d0     0.996272973438512d0     0.452152609497990d0
O1       0.001882992193933d0     0.999479849154423d0     0.422099495650131d0
O1       0.200489500241637d0     0.249295807644328d0     0.502258820741922d0
O1       0.808902988853254d0     0.248576084206217d0     0.503470122996446d0
Ti1      0.006164493571511d0     0.496265575254663d0     0.497667688288291d0
Ti1      0.506913382976170d0     0.246051758220162d0     0.498013899987377d0
O1       0.014422146730946d0     0.007433978910838d0     0.583817889172742d0
O1       0.502050691556610d0     0.998921202049977d0     0.555766283090347d0
O1       0.700895034920973d0     0.243982545490229d0     0.640441878904645d0
O1       0.319078955149920d0     0.249896178397996d0     0.644825482229303d0
Ti1      0.511513362287183d0     0.495801593645644d0     0.626948926905448d0
Ti1      0.010844120181568d0     0.237218907770081d0     0.636949909791528d0
O1       0.500093721748991d0     0.000084921243389d0     0.186906639369252d0
O1       0.009802426577732d0     0.983179905046035d0     0.684470924145113d0
O1       0.198268504441574d0     0.250236248865719d0     0.238667392858710d0
O1       0.801993766892314d0     0.249987153755059d0     0.238669098461250d0
Ti1      0.000123603383822d0     0.999897385958536d0     0.238512187198856d0
Ti1      0.500142521004230d0     0.750038178055688d0     0.238522014307695d0
O1       0.000095322930372d0     0.500084774873452d0     0.317452257936818d0
O1       0.500112315057126d0     0.500084209992886d0     0.290342007718641d0
O1       0.698270105622955d0     0.750236102495782d0     0.369213011426276d0
O1       0.301995368073695d0     0.749987007385122d0     0.369214717028816d0
Ti1      0.500001644927041d0     0.985370751416071d0     0.364779031055315d0
Ti1      0.000183276761494d0     0.748948988039575d0     0.368476322807288d0
O1       0.505084662669189d0     0.498006490744778d0     0.452035788537252d0
O1       0.001460782485842d0     0.499964783615161d0     0.422656139091726d0
O1       0.200289877513818d0     0.747141370988354d0     0.503338794575552d0
O1       0.809185582470455d0     0.747891439200766d0     0.504463846307533d0
Ti1      0.006304906801577d0     0.997213778527705d0     0.497052447598966d0
Ti1      0.506858242670773d0     0.745642482805120d0     0.498170018105341d0
O1       0.012110466376472d0     0.492054115621186d0     0.594106862110421d0
O1       0.503627569089079d0     0.495331330369023d0     0.555461113700536d0
O1       0.701691275235464d0     0.748118861856617d0     0.638581498283580d0
O1       0.319876991479053d0     0.743451561579098d0     0.642623265268209d0
Ti1      0.508197126514348d0     0.995631732445751d0     0.627384503917034d0
Ti1      0.009957157200164d0     0.777529425110503d0     0.631630119156783d0
O1       0.500093721748991d0     0.500084921243389d0     0.186906639369252d0
O1       0.198268504441574d0     0.750236248865719d0     0.238667392858710d0
O1       0.801993766892315d0     0.749987153755059d0     0.238669098461250d0
N1       0.967013934755012d0     0.447513452643051d0     0.722727425839075d0
C1       0.150011143107854d0     0.454575647406362d0     0.759692119289284d0
H1       0.237357030197727d0     0.603055312370124d0     0.749101023754138d0
H1       0.096423817931451d0     0.463440685563101d0     0.800501238604525d0
H2       0.239060087715468d0     0.304576672542793d0     0.752214626454801d0
N1       0.801326919595460d0     0.486056903455583d0     0.739311893504382d0
K_POINTS automatic
4 4 1  0 0 0 
