&CONTROL
  calculation='relax',
  prefix='calc',
  pseudo_dir='/storage/coda1/p-amedford6/0/shared/rich_project_chbe-medford/medford-share/data/pseudos_module/espresso/nninc/pbe/van',
  outdir='.',
  tefield=.true.,
  dipfield=.true.,
  tprnfor=.true.,
  disk_io='none',
/
&SYSTEM
  ibrav=0,
  celldm(1)=1.8897261245650618d0,
  nat=61,
  ntyp=4,
  ecutwfc=29.39945797996531d00,
  ecutrho=293.9945797996531d00,
  nbnd=231,
  occupations='smearing',
  smearing='fd',
  degauss=0.007349864494991328d00,
  input_dft='BEEF-vdW',
  edir=3,
  emaxpos=0.027265014752745342d00,
  eopreg=0.025d00,
  eamp=0.0d00,
  nosym=.false.,
  noinv=.false.,
  nosym_evc=.false.,
  no_t_rev=.false.,
/
&ELECTRONS
  diagonalization='david',
  conv_thr=7.349864494991327e-08,
  mixing_beta=0.05d00,
  electron_maxstep=1000,
  startingpot='file',
  startingwfc='atomic',
/
&IONS
  ion_dynamics='ipi',
/
&CELL
  cell_dynamics='ipi',
/
CELL_PARAMETERS alat
    6.579727202290808d0     0.000000000000000d0     0.000000000000000d0
   -0.001162698663605d0     8.942394630910734d0     0.000000000000000d0
    0.000000000000000d0    -0.000000000000000d0    25.155947251439940d0
ATOMIC_SPECIES
O1 15.999d00 O.UPF
Ti1 47.867d00 Ti.UPF
N1 14.007d00 N.UPF
H1 1.008d00 H.UPF
ATOMIC_POSITIONS {crystal}
O1       0.000111781329999d0     0.000056172521910d0     0.421099706309416d0
O1       0.500107562236186d0     0.002939289391165d0     0.552420746742391d0
O1       0.000111939710429d0     0.006478128074460d0     0.686037346850512d0
O1       0.000095322930372d0     0.000056516582301d0     0.317452257936818d0
O1       0.500092162504261d0     0.997660359142285d0     0.444796831764461d0
O1       0.000079909337844d0     0.005098268034804d0     0.581957081987028d0
O1       0.301995368073695d0     0.166658004923414d0     0.369214717028816d0
O1       0.796116036279583d0     0.179196605345661d0     0.499737229358342d0
O1       0.308214999345510d0     0.167471526118879d0     0.640056011235350d0
Ti1      0.000141987277103d0     0.166692151230444d0     0.369279712898471d0
Ti1      0.500105055866384d0     0.151546024575408d0     0.495753835645120d0
Ti1      0.000076774290131d0     0.161480150323499d0     0.625420739710149d0
O1       0.698270105622955d0     0.166824068330521d0     0.369213011426276d0
O1       0.204097680761950d0     0.179190515618099d0     0.499736105817503d0
O1       0.692002934267980d0     0.167484330908964d0     0.640061145511911d0
Ti1      0.500123069656695d0     0.333264956499010d0     0.369269885789632d0
Ti1      0.000136890847297d0     0.315971374313898d0     0.495473240114481d0
Ti1      0.500017593083870d0     0.339295167611308d0     0.623917691774703d0
O1       0.000111781329999d0     0.333389505855244d0     0.421099706309416d0
O1       0.500085937446501d0     0.331316529136435d0     0.552080788818559d0
O1       0.000095322930372d0     0.333389849915635d0     0.317452257936818d0
O1       0.500119376802605d0     0.332790475606447d0     0.444914510199497d0
O1       0.000103625637801d0     0.333300391396528d0     0.584828064318515d0
O1       0.301995368073695d0     0.499991338256748d0     0.369214717028816d0
O1       0.796584367208342d0     0.512032309794118d0     0.500300807727887d0
O1       0.301650981707604d0     0.487947203799872d0     0.638437033443356d0
Ti1      0.000141987277103d0     0.500025484563778d0     0.369279712898471d0
Ti1      0.500169806613859d0     0.485357816827530d0     0.497906018882682d0
Ti1      0.000038831482247d0     0.528036088384952d0     0.627742578095506d0
O1       0.698270105622955d0     0.500157401663855d0     0.369213011426276d0
O1       0.203668263387372d0     0.512022821314239d0     0.500297205569675d0
O1       0.698502461420719d0     0.487935669955543d0     0.638442156553523d0
Ti1      0.500123069656695d0     0.666598289832344d0     0.369269885789632d0
Ti1      0.000180211240111d0     0.649218436181478d0     0.495477375655964d0
Ti1      0.500079252926635d0     0.678523474039390d0     0.628809005413788d0
O1       0.000111781329999d0     0.666722839188577d0     0.421099706309416d0
O1       0.500107493841553d0     0.665270314829967d0     0.554630937521808d0
O1       0.000102146106272d0     0.664471611994441d0     0.684404405242671d0
O1       0.000095322930372d0     0.666723183248968d0     0.317452257936818d0
O1       0.500112418494609d0     0.665555597196832d0     0.445494215528888d0
O1       0.000078934386756d0     0.672004897243111d0     0.580477272394488d0
O1       0.301995368073695d0     0.833324671590081d0     0.369214717028816d0
O1       0.795558785606138d0     0.845584649056648d0     0.500095609817942d0
O1       0.307593195925457d0     0.834856592622309d0     0.637473935200124d0
Ti1      0.000141987277103d0     0.833358817897111d0     0.369279712898471d0
Ti1      0.500096535034147d0     0.814041238956556d0     0.498800341229822d0
Ti1      0.000126543926445d0     0.845072667291732d0     0.646372188964176d0
O1       0.698270105622955d0     0.833490734997188d0     0.369213011426276d0
O1       0.204613093339435d0     0.845563813113871d0     0.500099438082736d0
O1       0.692616420331366d0     0.834856221850716d0     0.637480704589487d0
Ti1      0.500123069656695d0     0.999931623165677d0     0.369269885789632d0
Ti1      0.000101849167840d0     0.981495814438229d0     0.495256846309113d0
Ti1      0.500162216019395d0     0.006510217391928d0     0.624053007910048d0
N1       0.500022368806437d0     0.667443754344597d0     0.722732244061078d0
H1       0.500019755222680d0     0.561592735933076d0     0.737077771568672d0
H1       0.373852891384854d0     0.719815815466050d0     0.736623789231452d0
H1       0.626149384085212d0     0.719862000461335d0     0.736646131201048d0
N1       0.000005115338325d0     0.324474953041312d0     0.711870317817518d0
H1       0.999992971925172d0     0.219311523516596d0     0.727869054231912d0
H1       0.875379258338908d0     0.379308489307271d0     0.725874247404247d0
H1       0.124575082783387d0     0.379355749555452d0     0.725903909434247d0
K_POINTS automatic
4 4 1  0 0 0 
