&CONTROL
  calculation='relax',
  prefix='calc',
  pseudo_dir='/storage/coda1/p-amedford6/0/shared/rich_project_chbe-medford/medford-share/data/pseudos_module/espresso/nninc/pbe/van',
  outdir='.',
  tefield=.true.,
  dipfield=.true.,
  tprnfor=.true.,
  disk_io='none',
/
&SYSTEM
  ibrav=0,
  celldm(1)=1.8897261245650618d0,
  nat=55,
  ntyp=5,
  ecutwfc=29.39945797996531d00,
  ecutrho=293.9945797996531d00,
  nbnd=211,
  occupations='smearing',
  smearing='fd',
  degauss=0.007349864494991328d00,
  input_dft='BEEF-vdW',
  edir=3,
  emaxpos=0.9767251987768808d00,
  eopreg=0.025d00,
  eamp=0.0d00,
  nosym=.false.,
  noinv=.false.,
  nosym_evc=.false.,
  no_t_rev=.false.,
/
&ELECTRONS
  diagonalization='david',
  conv_thr=7.349864494991327e-08,
  mixing_beta=0.05d00,
  electron_maxstep=1000,
  startingpot='file',
  startingwfc='atomic',
/
&IONS
  ion_dynamics='ipi',
/
&CELL
  cell_dynamics='ipi',
/
CELL_PARAMETERS alat
    6.579727202290808d0     0.000000000000000d0     0.000000000000000d0
   -0.000775132442404d0     5.961596420607155d0     0.000000000000000d0
    0.000000000000000d0    -0.000000000000000d0    25.155947251439940d0
ATOMIC_SPECIES
Ti1 47.867d00 Ti.UPF
O1 15.999d00 O.UPF
N1 14.007d00 N.UPF
C1 12.011d00 C.UPF
H1 1.008d00 H.UPF
ATOMIC_POSITIONS {crystal}
Ti1      0.000123603383822d0     0.499897385958536d0     0.238512187198856d0
Ti1      0.500142521004230d0     0.250038178055688d0     0.238522014307695d0
O1       0.000095322930372d0     0.000084774873452d0     0.317452257936818d0
O1       0.500112315057126d0     0.000084209992886d0     0.290342007718641d0
O1       0.698270105622955d0     0.250236102495782d0     0.369213011426276d0
O1       0.301995368073695d0     0.249987007385122d0     0.369214717028816d0
Ti1      0.500198167309398d0     0.485761668506182d0     0.364758343030283d0
Ti1      0.000261424674789d0     0.248709163236136d0     0.368424970923767d0
O1       0.496133948130982d0     0.001447232945711d0     0.448680896758154d0
O1       0.001882992193933d0     0.999479849154423d0     0.422099495650131d0
O1       0.193055217676587d0     0.247133923764676d0     0.502104977930898d0
O1       0.801762530755875d0     0.250839192002017d0     0.500272072846514d0
Ti1      0.994866091787999d0     0.522576060675245d0     0.505253820760737d0
Ti1      0.499045131514907d0     0.271473393347732d0     0.495853908442395d0
O1       0.981793164342270d0     0.000844054394503d0     0.580741857522633d0
O1       0.506221204668138d0     0.994091319605818d0     0.553271222765151d0
O1       0.686459901346691d0     0.263626348926247d0     0.636531976093946d0
O1       0.290724852207386d0     0.241840049458045d0     0.630324178883011d0
Ti1      0.490795115920962d0     0.517440705793067d0     0.627631897798934d0
Ti1      0.979978400548048d0     0.245016434158745d0     0.628725653263676d0
O1       0.500093721748991d0     0.000084921243389d0     0.186906639369252d0
O1       0.986095894524018d0     0.001917675093513d0     0.681410884188597d0
O1       0.198268504441574d0     0.250236248865719d0     0.238667392858710d0
O1       0.801993766892314d0     0.249987153755059d0     0.238669098461250d0
Ti1      0.000123603383822d0     0.999897385958536d0     0.238512187198856d0
Ti1      0.500142521004230d0     0.750038178055688d0     0.238522014307695d0
O1       0.000095322930372d0     0.500084774873452d0     0.317452257936818d0
O1       0.500112315057126d0     0.500084209992886d0     0.290342007718641d0
O1       0.698270105622955d0     0.750236102495782d0     0.369213011426276d0
O1       0.301995368073695d0     0.749987007385122d0     0.369214717028816d0
Ti1      0.500001644927041d0     0.985370751416071d0     0.364779031055315d0
Ti1      0.000183276761494d0     0.748948988039575d0     0.368476322807288d0
O1       0.496921666401913d0     0.495478344385497d0     0.446906414169243d0
O1       0.001460782485842d0     0.499964783615161d0     0.422656139091726d0
O1       0.191056752116962d0     0.752773015359804d0     0.502662848050915d0
O1       0.801531174754119d0     0.748599986794933d0     0.500593868396179d0
Ti1      0.999050566078340d0     0.021708258791721d0     0.499671604993282d0
Ti1      0.497133984676993d0     0.778945919110177d0     0.502917440524951d0
O1       0.988912827263648d0     0.497234957091793d0     0.582232915353980d0
O1       0.493565882772318d0     0.499656022278118d0     0.550823100237384d0
O1       0.690166655861227d0     0.731768842776080d0     0.638393765039920d0
O1       0.292717374610791d0     0.757643595468543d0     0.630483221719166d0
Ti1      0.479173890628249d0     0.018181476926803d0     0.638283806249150d0
Ti1      0.992089698407039d0     0.775405293513502d0     0.635301844031139d0
O1       0.500093721748991d0     0.500084921243389d0     0.186906639369252d0
O1       0.198268504441574d0     0.750236248865719d0     0.238667392858710d0
O1       0.801993766892315d0     0.749987153755059d0     0.238669098461250d0
N1       0.195049998841980d0     0.488639068962706d0     0.727642971337993d0
N1       0.025200301971090d0     0.497199281505369d0     0.693713260535042d0
C1       0.383968202513001d0     0.494391868760172d0     0.713502364288995d0
H1       0.480616313581773d0     0.482845410647162d0     0.748674779708557d0
H1       0.155226394096009d0     0.473346592465812d0     0.766543758184509d0
H1       0.899845787094435d0     0.490615215001863d0     0.717855109372982d0
O1       0.499335722786224d0     0.002905543823143d0     0.712694868050926d0
H1       0.637053182842071d0     0.971998880463231d0     0.724468110861797d0
K_POINTS automatic
4 4 1  0 0 0 
