&CONTROL
  calculation='relax',
  prefix='calc',
  pseudo_dir='/storage/coda1/p-amedford6/0/shared/rich_project_chbe-medford/medford-share/data/pseudos_module/espresso/nninc/pbe/van',
  outdir='.',
  tefield=.true.,
  dipfield=.true.,
  tprnfor=.true.,
  disk_io='none',
/
&SYSTEM
  ibrav=0,
  celldm(1)=1.8897261245650618d0,
  nat=50,
  ntyp=4,
  ecutwfc=29.39945797996531d00,
  ecutrho=293.9945797996531d00,
  nbnd=202,
  occupations='smearing',
  smearing='fd',
  degauss=0.007349864494991328d00,
  input_dft='BEEF-vdW',
  edir=3,
  emaxpos=0.9520531346127172d00,
  eopreg=0.025d00,
  eamp=0.0d00,
  nosym=.false.,
  noinv=.false.,
  nosym_evc=.false.,
  no_t_rev=.false.,
/
&ELECTRONS
  diagonalization='david',
  conv_thr=7.349864494991327e-08,
  mixing_beta=0.05d00,
  electron_maxstep=1000,
  startingwfc='atomic',
/
&IONS
  ion_dynamics='ipi',
/
&CELL
  cell_dynamics='ipi',
/
CELL_PARAMETERS alat
    6.579727202290808d0     0.000000000000000d0     0.000000000000000d0
   -0.000775132442404d0     5.961596420607155d0     0.000000000000000d0
    0.000000000000000d0    -0.000000000000000d0    25.155947251439940d0
ATOMIC_SPECIES
Ti1 47.867d00 Ti.UPF
O1 15.999d00 O.UPF
H1 1.008d00 H.UPF
N1 14.007d00 N.UPF
ATOMIC_POSITIONS {crystal}
Ti1      0.000123603383822d0     0.499897385958536d0     0.238512187198856d0
Ti1      0.500142521004230d0     0.250038178055688d0     0.238522014307695d0
O1       0.000095322930372d0     0.000084774873452d0     0.317452257936818d0
O1       0.500112315057126d0     0.000084209992886d0     0.290342007718641d0
O1       0.698270105622955d0     0.250236102495782d0     0.369213011426276d0
O1       0.301995368073695d0     0.249987007385122d0     0.369214717028816d0
Ti1      0.500198167309398d0     0.485761668506182d0     0.364758343030283d0
Ti1      0.000261424674789d0     0.248709163236136d0     0.368424970923767d0
O1       0.505612134130365d0     0.998605757658027d0     0.450204038806106d0
O1       0.001882992193933d0     0.999479849154423d0     0.422099495650131d0
O1       0.204931940538538d0     0.248492420058578d0     0.501081693700675d0
O1       0.808508983947950d0     0.248189249052003d0     0.501971754863872d0
Ti1      0.004067362704472d0     0.501388070350211d0     0.501845418865318d0
Ti1      0.502592154447675d0     0.247831212627411d0     0.496023768136731d0
O1       0.010613677360301d0     0.002412923377585d0     0.582515373081922d0
O1       0.506522608050293d0     0.000055681951222d0     0.553766697344449d0
O1       0.699869498794326d0     0.256636444789802d0     0.638542509537918d0
O1       0.321298122958501d0     0.256697217457981d0     0.639036404968145d0
Ti1      0.509934412360439d0     0.504186542620903d0     0.623995853131888d0
Ti1      0.008722953938931d0     0.258753576224088d0     0.629821488157231d0
O1       0.500093721748991d0     0.000084921243389d0     0.186906639369252d0
O1       0.009804164323240d0     0.008001522640568d0     0.684514281418225d0
O1       0.198268504441574d0     0.250236248865719d0     0.238667392858710d0
O1       0.801993766892314d0     0.249987153755059d0     0.238669098461250d0
Ti1      0.000123603383822d0     0.999897385958536d0     0.238512187198856d0
Ti1      0.500142521004230d0     0.750038178055688d0     0.238522014307695d0
O1       0.000095322930372d0     0.500084774873452d0     0.317452257936818d0
O1       0.500112315057126d0     0.500084209992886d0     0.290342007718641d0
O1       0.698270105622955d0     0.750236102495782d0     0.369213011426276d0
O1       0.301995368073695d0     0.749987007385122d0     0.369214717028816d0
Ti1      0.500001644927041d0     0.985370751416071d0     0.364779031055315d0
Ti1      0.000183276761494d0     0.748948988039575d0     0.368476322807288d0
O1       0.505656916615510d0     0.499241777423111d0     0.450095189608551d0
O1       0.001460782485842d0     0.499964783615161d0     0.422656139091726d0
O1       0.204270553947377d0     0.749919338777647d0     0.501531873609955d0
O1       0.809060137579841d0     0.750312359109952d0     0.502439361208560d0
Ti1      0.003108509595635d0     0.000552104123144d0     0.499787958159575d0
Ti1      0.502544661288550d0     0.747768621173291d0     0.496132504613148d0
O1       0.009764719877235d0     0.493562201841926d0     0.581936078762104d0
O1       0.506862101803950d0     0.500998624218977d0     0.552698671445788d0
O1       0.699432495883681d0     0.752606529582757d0     0.639768166386361d0
O1       0.321221032778585d0     0.752629519525886d0     0.640084714761106d0
Ti1      0.508684151328554d0     0.003259639355782d0     0.625197957531051d0
Ti1      0.009704618016135d0     0.782839638432152d0     0.641299699339028d0
O1       0.500093721748991d0     0.500084921243389d0     0.186906639369252d0
O1       0.198268504441574d0     0.750236248865719d0     0.238667392858710d0
O1       0.801993766892315d0     0.749987153755059d0     0.238669098461250d0
H1       0.891071888957174d0     0.487862249846804d0     0.717199629856182d0
H1       0.139829763863723d0     0.484646085178253d0     0.715181347418575d0
N1       0.012614737966062d0     0.498528469412879d0     0.692311562069567d0
K_POINTS automatic
4 4 1  0 0 0 
