&CONTROL
  calculation='relax',
  prefix='calc',
  pseudo_dir='/storage/coda1/p-amedford6/0/shared/rich_project_chbe-medford/medford-share/data/pseudos_module/espresso/nninc/pbe/van',
  outdir='.',
  tefield=.true.,
  dipfield=.true.,
  tprnfor=.true.,
  disk_io='none',
/
&SYSTEM
  ibrav=0,
  celldm(1)=1.8897261245650618d0,
  nat=55,
  ntyp=5,
  ecutwfc=29.39945797996531d00,
  ecutrho=293.9945797996531d00,
  nbnd=209,
  occupations='smearing',
  smearing='fd',
  degauss=0.007349864494991328d00,
  input_dft='BEEF-vdW',
  edir=3,
  emaxpos=0.9818609091880245d00,
  eopreg=0.025d00,
  eamp=0.0d00,
  nosym=.false.,
  noinv=.false.,
  nosym_evc=.false.,
  no_t_rev=.false.,
/
&ELECTRONS
  diagonalization='david',
  conv_thr=7.349864494991327e-08,
  mixing_beta=0.05d00,
  electron_maxstep=1000,
  startingpot='file',
  startingwfc='atomic',
/
&IONS
  ion_dynamics='ipi',
/
&CELL
  cell_dynamics='ipi',
/
CELL_PARAMETERS alat
    6.579727202290808d0     0.000000000000000d0     0.000000000000000d0
   -0.000775132442404d0     5.961596420607155d0     0.000000000000000d0
    0.000000000000000d0    -0.000000000000000d0    25.155947251439940d0
ATOMIC_SPECIES
Ti1 47.867d00 Ti.UPF
O1 15.999d00 O.UPF
N1 14.007d00 N.UPF
C1 12.011d00 C.UPF
H1 1.008d00 H.UPF
ATOMIC_POSITIONS {crystal}
Ti1      0.000123603383822d0     0.499897385958536d0     0.238512187198856d0
Ti1      0.500142521004230d0     0.250038178055688d0     0.238522014307695d0
O1       0.000095322930372d0     0.000084774873452d0     0.317452257936818d0
O1       0.500112315057126d0     0.000084209992886d0     0.290342007718641d0
O1       0.698270105622955d0     0.250236102495782d0     0.369213011426276d0
O1       0.301995368073695d0     0.249987007385122d0     0.369214717028816d0
Ti1      0.500198167309398d0     0.485761668506182d0     0.364758343030283d0
Ti1      0.000261424674789d0     0.248709163236136d0     0.368424970923767d0
O1       0.503708802366923d0     0.997231711001887d0     0.452046012488277d0
O1       0.001882992193933d0     0.999479849154423d0     0.422099495650131d0
O1       0.197748597423575d0     0.250445936201867d0     0.504148256984207d0
O1       0.811779923343915d0     0.249991830680732d0     0.504308175867212d0
Ti1      0.005255957808144d0     0.493667097370360d0     0.497348300667536d0
Ti1      0.506084066094438d0     0.217283084555164d0     0.506084032945967d0
O1       0.007621080360741d0     0.991120897148568d0     0.583121315122422d0
O1       0.505928109829222d0     0.011981467738953d0     0.557234265024962d0
O1       0.701481133463867d0     0.267980256029886d0     0.643136622520237d0
O1       0.313001796508037d0     0.265698741084674d0     0.639646547432563d0
Ti1      0.504079442587138d0     0.509298875783552d0     0.624435831233497d0
Ti1      0.017054913460400d0     0.223606223123180d0     0.629809169728558d0
O1       0.500093721748991d0     0.000084921243389d0     0.186906639369252d0
O1       0.010500489904575d0     0.023047926907781d0     0.684084241861068d0
O1       0.198268504441574d0     0.250236248865719d0     0.238667392858710d0
O1       0.801993766892314d0     0.249987153755059d0     0.238669098461250d0
Ti1      0.000123603383822d0     0.999897385958536d0     0.238512187198856d0
Ti1      0.500142521004230d0     0.750038178055688d0     0.238522014307695d0
O1       0.000095322930372d0     0.500084774873452d0     0.317452257936818d0
O1       0.500112315057126d0     0.500084209992886d0     0.290342007718641d0
O1       0.698270105622955d0     0.750236102495782d0     0.369213011426276d0
O1       0.301995368073695d0     0.749987007385122d0     0.369214717028816d0
Ti1      0.500001644927041d0     0.985370751416071d0     0.364779031055315d0
Ti1      0.000183276761494d0     0.748948988039575d0     0.368476322807288d0
O1       0.504110698322101d0     0.503943162836045d0     0.450022228574326d0
O1       0.001460782485842d0     0.499964783615161d0     0.422656139091726d0
O1       0.198426647029594d0     0.747763045612102d0     0.503070851196909d0
O1       0.810958411818768d0     0.748462195388499d0     0.503237326870593d0
Ti1      0.005143777268007d0     0.992265599176702d0     0.496913475436178d0
Ti1      0.506064365663787d0     0.734366244287911d0     0.494731253546645d0
O1       0.003615854140066d0     0.509137493701403d0     0.593442898545275d0
O1       0.505738490085587d0     0.504373423232154d0     0.553934137022009d0
O1       0.698633282525922d0     0.751613781736095d0     0.642575030334355d0
O1       0.312057714807654d0     0.745855705428263d0     0.643415318925213d0
Ti1      0.521443241462678d0     0.010630004139659d0     0.648817753562550d0
Ti1      0.015811963165892d0     0.763573429396311d0     0.634997058736557d0
O1       0.500093721748991d0     0.500084921243389d0     0.186906639369252d0
O1       0.198268504441574d0     0.750236248865719d0     0.238667392858710d0
O1       0.801993766892315d0     0.749987153755059d0     0.238669098461250d0
N1       0.936242283114284d0     0.579304243894626d0     0.727420271368337d0
C1       0.099718733504947d0     0.527887344651292d0     0.758534643875037d0
H1       0.183032343195393d0     0.662746787451062d0     0.776815179006797d0
H1       0.160494348840509d0     0.360636306262977d0     0.756631955218068d0
H1       0.864571882081818d0     0.726952348175071d0     0.735200072909104d0
H1       0.836811660150490d0     0.452964989014651d0     0.719580571667199d0
O1       0.497655581936989d0     0.013313744553799d0     0.722524444309653d0
H1       0.358867159029055d0     0.992929906696741d0     0.734640125419403d0
K_POINTS automatic
4 4 1  0 0 0 
