&CONTROL
  calculation='relax',
  prefix='calc',
  pseudo_dir='/storage/coda1/p-amedford6/0/shared/rich_project_chbe-medford/medford-share/data/pseudos_module/espresso/nninc/pbe/van',
  outdir='.',
  tefield=.true.,
  dipfield=.true.,
  tprnfor=.true.,
  disk_io='none',
/
&SYSTEM
  ibrav=0,
  celldm(1)=1.8897261245650618d0,
  nat=7,
  ntyp=3,
  ecutwfc=29.39945797996531d00,
  ecutrho=293.9945797996531d00,
  nbnd=17,
  occupations='smearing',
  smearing='fd',
  degauss=0.007349864494991328d00,
  nspin=2,
  starting_magnetization(1)=0.12d00,
  starting_magnetization(2)=0.15d00,
  starting_magnetization(3)=0.0d00,
  input_dft='BEEF-vdW',
  edir=3,
  emaxpos=0.0d00,
  eopreg=0.025d00,
  eamp=0.0d00,
  nosym=.false.,
  noinv=.false.,
  nosym_evc=.false.,
  no_t_rev=.false.,
/
&ELECTRONS
  diagonalization='david',
  conv_thr=7.349864494991327e-08,
  mixing_beta=0.05d00,
  electron_maxstep=1000,
  startingwfc='atomic',
/
&IONS
  ion_dynamics='ipi',
/
&CELL
  cell_dynamics='ipi',
/
CELL_PARAMETERS alat
   14.395729649471100d0     0.000000000000000d0     0.000000000000000d0
    0.000000000000000d0    14.141645463076998d0     0.000000000000000d0
    0.000000000000000d0     0.000000000000000d0    23.501604515316416d0
ATOMIC_SPECIES
N1 14.007d00 N.UPF
C1 12.011d00 C.UPF
H1 1.008d00 H.UPF
ATOMIC_POSITIONS {crystal}
N1       0.468682137630029d0     0.562663355381529d0     0.491878221577410d0
C1       0.528520253830994d0     0.481559333197123d0     0.505718512097924d0
H1       0.569986865285144d0     0.463113708174490d0     0.468482074200449d0
H1       0.576848931316510d0     0.501826007212968d0     0.539300758762854d0
H1       0.491026623534577d0     0.417912858457361d0     0.519102895384599d0
H1       0.423151068683490d0     0.544755054009688d0     0.460699241237146d0
H1       0.430681749935530d0     0.582087141542639d0     0.526230701554920d0
K_POINTS automatic
4 4 1  0 0 0 
