&CONTROL
  calculation='relax',
  prefix='calc',
  pseudo_dir='/storage/coda1/p-amedford6/0/shared/rich_project_chbe-medford/medford-share/data/pseudos_module/espresso/nninc/pbe/van',
  outdir='.',
  tefield=.true.,
  dipfield=.true.,
  tprnfor=.true.,
  disk_io='none',
/
&SYSTEM
  ibrav=0,
  celldm(1)=1.8897261245650618d0,
  nat=56,
  ntyp=5,
  ecutwfc=29.39945797996531d00,
  ecutrho=293.9945797996531d00,
  nbnd=209,
  occupations='smearing',
  smearing='fd',
  degauss=0.007349864494991328d00,
  input_dft='BEEF-vdW',
  edir=3,
  emaxpos=0.9993086576271355d00,
  eopreg=0.025d00,
  eamp=0.0d00,
  nosym=.false.,
  noinv=.false.,
  nosym_evc=.false.,
  no_t_rev=.false.,
/
&ELECTRONS
  diagonalization='david',
  conv_thr=7.349864494991327e-08,
  mixing_beta=0.05d00,
  electron_maxstep=1000,
  startingwfc='atomic',
/
&IONS
  ion_dynamics='ipi',
/
&CELL
  cell_dynamics='ipi',
/
CELL_PARAMETERS alat
    6.579727202290808d0     0.000000000000000d0     0.000000000000000d0
   -0.000775132442404d0     5.961596420607155d0     0.000000000000000d0
    0.000000000000000d0    -0.000000000000000d0    25.155947251439940d0
ATOMIC_SPECIES
Ti1 47.867d00 Ti.UPF
O1 15.999d00 O.UPF
N1 14.007d00 N.UPF
C1 12.011d00 C.UPF
H1 1.008d00 H.UPF
ATOMIC_POSITIONS {crystal}
Ti1      0.000123603383822d0     0.499897385958536d0     0.238512187198856d0
Ti1      0.500142521004230d0     0.250038178055688d0     0.238522014307695d0
O1       0.000095322930372d0     0.000084774873452d0     0.317452257936818d0
O1       0.500112315057126d0     0.000084209992886d0     0.290342007718641d0
O1       0.698270105622955d0     0.250236102495782d0     0.369213011426276d0
O1       0.301995368073695d0     0.249987007385122d0     0.369214717028816d0
Ti1      0.500198167309398d0     0.485761668506182d0     0.364758343030283d0
Ti1      0.000261424674789d0     0.248709163236136d0     0.368424970923767d0
O1       0.499081334057585d0     0.000920397058581d0     0.452084244388952d0
O1       0.001882992193933d0     0.999479849154423d0     0.422099495650131d0
O1       0.196907367993034d0     0.249981029785829d0     0.505267836861411d0
O1       0.805052814380505d0     0.248035811858681d0     0.503964043747480d0
Ti1      0.001290108802862d0     0.497251634177032d0     0.497283658682523d0
Ti1      0.499565516400110d0     0.247058179680331d0     0.498422921389069d0
O1       0.003388906572827d0     0.984839844061940d0     0.582737695957274d0
O1       0.504439862556751d0     0.996729253429253d0     0.556158939404501d0
O1       0.695376184427136d0     0.257910793581896d0     0.640877188576261d0
O1       0.313648681041669d0     0.256016199742928d0     0.639313804289090d0
Ti1      0.504875200176922d0     0.504947939207828d0     0.626403114018227d0
Ti1      0.012331040606824d0     0.225790094504166d0     0.626609627333106d0
O1       0.500093721748991d0     0.000084921243389d0     0.186906639369252d0
O1       0.002892304267932d0     0.034496192314188d0     0.683310649048772d0
O1       0.198268504441574d0     0.250236248865719d0     0.238667392858710d0
O1       0.801993766892314d0     0.249987153755059d0     0.238669098461250d0
Ti1      0.000123603383822d0     0.999897385958536d0     0.238512187198856d0
Ti1      0.500142521004230d0     0.750038178055688d0     0.238522014307695d0
O1       0.000095322930372d0     0.500084774873452d0     0.317452257936818d0
O1       0.500112315057126d0     0.500084209992886d0     0.290342007718641d0
O1       0.698270105622955d0     0.750236102495782d0     0.369213011426276d0
O1       0.301995368073695d0     0.749987007385122d0     0.369214717028816d0
Ti1      0.500001644927041d0     0.985370751416071d0     0.364779031055315d0
Ti1      0.000183276761494d0     0.748948988039575d0     0.368476322807288d0
O1       0.499039218187804d0     0.496054497217360d0     0.451861902672612d0
O1       0.001460782485842d0     0.499964783615161d0     0.422656139091726d0
O1       0.197390188726608d0     0.746455163949290d0     0.502940403540100d0
O1       0.804886469269533d0     0.748010841485424d0     0.502238790232785d0
Ti1      0.998264455523618d0     0.994431405175124d0     0.496846363310535d0
Ti1      0.498449395677162d0     0.746652452946640d0     0.497247396076650d0
O1       0.998717932406143d0     0.513216664494429d0     0.594506991519378d0
O1       0.505892079240305d0     0.504528787663999d0     0.555114392714664d0
O1       0.694771782668932d0     0.752503531045378d0     0.646437360794105d0
O1       0.310724522934810d0     0.754474528746485d0     0.643747500599305d0
Ti1      0.511648984477688d0     0.005010732496059d0     0.627385944716522d0
Ti1      0.011594368828443d0     0.767365143825795d0     0.639098266644367d0
O1       0.500093721748991d0     0.500084921243389d0     0.186906639369252d0
O1       0.198268504441574d0     0.750236248865719d0     0.238667392858710d0
O1       0.801993766892315d0     0.749987153755059d0     0.238669098461250d0
N1       0.167396722092284d0     0.562678099087606d0     0.757407680533290d0
N1       0.994056134978732d0     0.559731064196924d0     0.721113324528517d0
C1       0.182598218051257d0     0.778974571897793d0     0.785103944418004d0
H1       0.044730736454021d0     0.819643765593813d0     0.809097462726809d0
H1       0.313151416517966d0     0.768740354625552d0     0.811710675885018d0
H1       0.206886994226910d0     0.914950291714175d0     0.756644496877477d0
H1       0.141841779307847d0     0.440807335467419d0     0.785140806411354d0
H1       0.865832699016275d0     0.630844485965787d0     0.738355466754420d0
H1       0.957197344795139d0     0.392391228739516d0     0.717309549160613d0
K_POINTS automatic
4 4 1  0 0 0 
