&CONTROL
  calculation='relax',
  prefix='calc',
  pseudo_dir='/storage/coda1/p-amedford6/0/shared/rich_project_chbe-medford/medford-share/data/pseudos_module/espresso/nninc/pbe/van',
  outdir='.',
  tefield=.true.,
  dipfield=.true.,
  tprnfor=.true.,
  disk_io='none',
/
&SYSTEM
  ibrav=0,
  celldm(1)=1.8897261245650618d0,
  nat=61,
  ntyp=4,
  ecutwfc=29.39945797996531d00,
  ecutrho=293.9945797996531d00,
  nbnd=231,
  occupations='smearing',
  smearing='fd',
  degauss=0.007349864494991328d00,
  input_dft='BEEF-vdW',
  edir=3,
  emaxpos=0.02965094845235483d00,
  eopreg=0.025d00,
  eamp=0.0d00,
  nosym=.false.,
  noinv=.false.,
  nosym_evc=.false.,
  no_t_rev=.false.,
/
&ELECTRONS
  diagonalization='david',
  conv_thr=7.349864494991327e-08,
  mixing_beta=0.05d00,
  electron_maxstep=1000,
  startingpot='file',
  startingwfc='atomic',
/
&IONS
  ion_dynamics='ipi',
/
&CELL
  cell_dynamics='ipi',
/
CELL_PARAMETERS alat
    6.579727202290808d0     0.000000000000000d0     0.000000000000000d0
   -0.001162698663605d0     8.942394630910734d0     0.000000000000000d0
    0.000000000000000d0    -0.000000000000000d0    25.155947251439940d0
ATOMIC_SPECIES
O1 15.999d00 O.UPF
Ti1 47.867d00 Ti.UPF
N1 14.007d00 N.UPF
H1 1.008d00 H.UPF
ATOMIC_POSITIONS {crystal}
O1       0.000111781329999d0     0.000056172521910d0     0.421099706309416d0
O1       0.493279021971445d0     0.002333033576264d0     0.551058128973495d0
O1       0.996534647733969d0     0.006213653197599d0     0.689178285931620d0
O1       0.000095322930372d0     0.000056516582301d0     0.317452257936818d0
O1       0.500706528650873d0     0.998623264687027d0     0.444477619546012d0
O1       0.005132272459380d0     0.007969991376788d0     0.581490182339410d0
O1       0.301995368073695d0     0.166658004923414d0     0.369214717028816d0
O1       0.793607806309208d0     0.180982576787884d0     0.500047271537287d0
O1       0.302824495021167d0     0.177830314503250d0     0.639930287616154d0
Ti1      0.000141987277103d0     0.166692151230444d0     0.369279712898471d0
Ti1      0.499446832755442d0     0.150472094513758d0     0.494353869894822d0
Ti1      0.997316487452894d0     0.152114919815473d0     0.631312046631181d0
O1       0.698270105622955d0     0.166824068330521d0     0.369213011426276d0
O1       0.202276191440305d0     0.177663824118567d0     0.498416098980938d0
O1       0.694971046278782d0     0.180251364184076d0     0.636058968832106d0
Ti1      0.500123069656695d0     0.333264956499010d0     0.369269885789632d0
Ti1      0.000763778062475d0     0.315662713905470d0     0.494955548547359d0
Ti1      0.494844055146684d0     0.323160003697959d0     0.622762593890857d0
O1       0.000111781329999d0     0.333389505855244d0     0.421099706309416d0
O1       0.490644823533511d0     0.330487972726202d0     0.551811695831249d0
O1       0.000095322930372d0     0.333389849915635d0     0.317452257936818d0
O1       0.499921007367453d0     0.333914430010112d0     0.444990297918770d0
O1       0.008567132334107d0     0.333830551451899d0     0.582322270454252d0
O1       0.301995368073695d0     0.499991338256748d0     0.369214717028816d0
O1       0.795182765220595d0     0.513517567877448d0     0.501303639478963d0
O1       0.303588124615494d0     0.506850479757499d0     0.642136140562965d0
Ti1      0.000141987277103d0     0.500025484563778d0     0.369279712898471d0
Ti1      0.499274991922625d0     0.487163900335001d0     0.498074804968013d0
Ti1      0.998249086669437d0     0.487174654233645d0     0.629098944532257d0
O1       0.698270105622955d0     0.500157401663855d0     0.369213011426276d0
O1       0.202455681867237d0     0.511906807643734d0     0.499806382922744d0
O1       0.697255846235129d0     0.498129301586578d0     0.633148243032305d0
Ti1      0.500123069656695d0     0.666598289832344d0     0.369269885789632d0
Ti1      0.999909667383919d0     0.649806949209739d0     0.495058636383415d0
Ti1      0.504124174827095d0     0.649834462562351d0     0.637357076385419d0
O1       0.000111781329999d0     0.666722839188577d0     0.421099706309416d0
O1       0.496138535635148d0     0.669506948011440d0     0.555693720017432d0
O1       0.974399545794109d0     0.676276893828564d0     0.687202277594567d0
O1       0.000095322930372d0     0.666723183248968d0     0.317452257936818d0
O1       0.500217639327820d0     0.665554470765629d0     0.446026436831993d0
O1       0.009495739857735d0     0.668765709633953d0     0.582912601393854d0
O1       0.301995368073695d0     0.833324671590081d0     0.369214717028816d0
O1       0.796641893043741d0     0.845107753767431d0     0.501071025380460d0
O1       0.302309642031648d0     0.849433501724793d0     0.639249915828175d0
Ti1      0.000141987277103d0     0.833358817897111d0     0.369279712898471d0
Ti1      0.500355689753843d0     0.808567162417923d0     0.501561181409967d0
Ti1      0.003680474270701d0     0.817396461591154d0     0.632762672100157d0
O1       0.698270105622955d0     0.833490734997188d0     0.369213011426276d0
O1       0.202089897391994d0     0.843230204139745d0     0.499819771968579d0
O1       0.706988867974348d0     0.858322966910299d0     0.632707912737498d0
Ti1      0.500123069656695d0     0.999931623165677d0     0.369269885789632d0
Ti1      0.001358674104030d0     0.981831315146575d0     0.495471512367120d0
Ti1      0.500358558638629d0     0.990048438300357d0     0.622550554822891d0
N1       0.571970180284623d0     0.681978234393118d0     0.715612380882494d0
H1       0.526933411728331d0     0.602093439431947d0     0.741849638967891d0
H1       0.540668596989464d0     0.782662157601974d0     0.732265976824345d0
N1       0.992796057000271d0     0.341403216725563d0     0.691666188211435d0
H1       0.866560415735831d0     0.337051490856643d0     0.715156465564548d0
H1       0.115616653792333d0     0.346736466172466d0     0.716346397077933d0
H1       0.835630967111612d0     0.676203902729712d0     0.705294987140192d0
H1       0.111314706256531d0     0.007595458342575d0     0.713160344896920d0
K_POINTS automatic
4 4 1  0 0 0 
