&CONTROL
  calculation='relax',
  prefix='calc',
  pseudo_dir='/storage/coda1/p-amedford6/0/shared/rich_project_chbe-medford/medford-share/data/pseudos_module/espresso/nninc/pbe/van',
  outdir='.',
  tefield=.true.,
  dipfield=.true.,
  tprnfor=.true.,
  disk_io='none',
/
&SYSTEM
  ibrav=0,
  celldm(1)=1.8897261245650618d0,
  nat=53,
  ntyp=5,
  ecutwfc=29.39945797996531d00,
  ecutrho=293.9945797996531d00,
  nbnd=207,
  occupations='smearing',
  smearing='fd',
  degauss=0.007349864494991328d00,
  input_dft='BEEF-vdW',
  edir=3,
  emaxpos=0.9857179625210002d00,
  eopreg=0.025d00,
  eamp=0.0d00,
  nosym=.false.,
  noinv=.false.,
  nosym_evc=.false.,
  no_t_rev=.false.,
/
&ELECTRONS
  diagonalization='david',
  conv_thr=7.349864494991327e-08,
  mixing_beta=0.05d00,
  electron_maxstep=1000,
  startingpot='file',
  startingwfc='atomic',
/
&IONS
  ion_dynamics='ipi',
/
&CELL
  cell_dynamics='ipi',
/
CELL_PARAMETERS alat
    6.579727202290808d0     0.000000000000000d0     0.000000000000000d0
   -0.000775132442404d0     5.961596420607155d0     0.000000000000000d0
    0.000000000000000d0    -0.000000000000000d0    25.155947251439940d0
ATOMIC_SPECIES
Ti1 47.867d00 Ti.UPF
O1 15.999d00 O.UPF
N1 14.007d00 N.UPF
C1 12.011d00 C.UPF
H1 1.008d00 H.UPF
ATOMIC_POSITIONS {crystal}
Ti1      0.000123603383822d0     0.499897385958536d0     0.238512187198856d0
Ti1      0.500142521004230d0     0.250038178055688d0     0.238522014307695d0
O1       0.000095322930372d0     0.000084774873452d0     0.317452257936818d0
O1       0.500112315057126d0     0.000084209992886d0     0.290342007718641d0
O1       0.698270105622955d0     0.250236102495782d0     0.369213011426276d0
O1       0.301995368073695d0     0.249987007385122d0     0.369214717028816d0
Ti1      0.500198167309398d0     0.485761668506182d0     0.364758343030283d0
Ti1      0.000261424674789d0     0.248709163236136d0     0.368424970923767d0
O1       0.499328035002346d0     0.997253157127249d0     0.450551475964616d0
O1       0.001882992193933d0     0.999479849154423d0     0.422099495650131d0
O1       0.195091273718252d0     0.249054350927080d0     0.502043726689337d0
O1       0.800590203531274d0     0.247723298346395d0     0.501473061341063d0
Ti1      0.007887756808919d0     0.505146516710333d0     0.502959743356706d0
Ti1      0.512669699651417d0     0.246817188514508d0     0.496187197674614d0
O1       0.997001309521115d0     0.000625759293074d0     0.580495625802379d0
O1       0.498627331334066d0     0.996171719169482d0     0.553630657398193d0
O1       0.686776650390034d0     0.245821976349129d0     0.637828890606286d0
O1       0.307922326200886d0     0.246364418979271d0     0.638114254069061d0
Ti1      0.496265424064420d0     0.494703361655504d0     0.624060777596043d0
Ti1      0.995631099801061d0     0.227400072097015d0     0.628181855970720d0
O1       0.500093721748991d0     0.000084921243389d0     0.186906639369252d0
O1       0.999273052646772d0     0.998658863443500d0     0.680964767896882d0
O1       0.198268504441574d0     0.250236248865719d0     0.238667392858710d0
O1       0.801993766892314d0     0.249987153755059d0     0.238669098461250d0
Ti1      0.000123603383822d0     0.999897385958536d0     0.238512187198856d0
Ti1      0.500142521004230d0     0.750038178055688d0     0.238522014307695d0
O1       0.000095322930372d0     0.500084774873452d0     0.317452257936818d0
O1       0.500112315057126d0     0.500084209992886d0     0.290342007718641d0
O1       0.698270105622955d0     0.750236102495782d0     0.369213011426276d0
O1       0.301995368073695d0     0.749987007385122d0     0.369214717028816d0
Ti1      0.500001644927041d0     0.985370751416071d0     0.364779031055315d0
Ti1      0.000183276761494d0     0.748948988039575d0     0.368476322807288d0
O1       0.499499179503653d0     0.497667432820364d0     0.450471234040672d0
O1       0.001460782485842d0     0.499964783615161d0     0.422656139091726d0
O1       0.194772580270247d0     0.749097220749390d0     0.502253310596679d0
O1       0.801274479408217d0     0.747508910456782d0     0.501675292205900d0
Ti1      0.009660312733823d0     0.003915081337576d0     0.498298388789144d0
Ti1      0.512669551882138d0     0.746646697863369d0     0.496275693795610d0
O1       0.998590439683869d0     0.496570523098406d0     0.584563940500592d0
O1       0.498561433736989d0     0.497354764933472d0     0.552729429582026d0
O1       0.687379310041340d0     0.742433980388606d0     0.639281783920601d0
O1       0.308267331035881d0     0.743117484448903d0     0.638924437195083d0
Ti1      0.495846251355940d0     0.995207518364851d0     0.625146560753170d0
Ti1      0.994399862167502d0     0.747160392395797d0     0.641990732399655d0
O1       0.500093721748991d0     0.500084921243389d0     0.186906639369252d0
O1       0.198268504441574d0     0.750236248865719d0     0.238667392858710d0
O1       0.801993766892315d0     0.749987153755059d0     0.238669098461250d0
N1       0.437744287691237d0     0.990850931286383d0     0.754032256299930d0
C1       0.995580974751145d0     0.510884257492001d0     0.708978142123245d0
H1       0.895671776629351d0     0.626622319276830d0     0.730549551583630d0
H1       0.933807198213146d0     0.345198485843107d0     0.717575849114530d0
H1       0.146032113666550d0     0.520217515901896d0     0.726744853927281d0
N1       0.318719210830894d0     0.968935166631148d0     0.784529285672748d0
K_POINTS automatic
4 4 1  0 0 0 
