&CONTROL
  calculation='relax',
  prefix='calc',
  pseudo_dir='/storage/coda1/p-amedford6/0/shared/rich_project_chbe-medford/medford-share/data/pseudos_module/espresso/nninc/pbe/van',
  outdir='.',
  tefield=.true.,
  dipfield=.true.,
  tprnfor=.true.,
  disk_io='none',
/
&SYSTEM
  ibrav=0,
  celldm(1)=1.8897261245650618d0,
  nat=56,
  ntyp=5,
  ecutwfc=29.39945797996531d00,
  ecutrho=293.9945797996531d00,
  nbnd=209,
  occupations='smearing',
  smearing='fd',
  degauss=0.007349864494991328d00,
  input_dft='BEEF-vdW',
  edir=3,
  emaxpos=0.034885605019938204d00,
  eopreg=0.025d00,
  eamp=0.0d00,
  nosym=.false.,
  noinv=.false.,
  nosym_evc=.false.,
  no_t_rev=.false.,
/
&ELECTRONS
  diagonalization='david',
  conv_thr=7.349864494991327e-08,
  mixing_beta=0.05d00,
  electron_maxstep=1000,
  startingpot='file',
  startingwfc='atomic',
/
&IONS
  ion_dynamics='ipi',
/
&CELL
  cell_dynamics='ipi',
/
CELL_PARAMETERS alat
    6.579727202290808d0     0.000000000000000d0     0.000000000000000d0
   -0.000775132442404d0     5.961596420607155d0     0.000000000000000d0
    0.000000000000000d0    -0.000000000000000d0    25.155947251439940d0
ATOMIC_SPECIES
Ti1 47.867d00 Ti.UPF
O1 15.999d00 O.UPF
H1 1.008d00 H.UPF
N1 14.007d00 N.UPF
C1 12.011d00 C.UPF
ATOMIC_POSITIONS {crystal}
Ti1      0.000123603383822d0     0.499897385958536d0     0.238512187198856d0
Ti1      0.500142521004230d0     0.250038178055688d0     0.238522014307695d0
O1       0.000095322930372d0     0.000084774873452d0     0.317452257936818d0
O1       0.500112315057126d0     0.000084209992886d0     0.290342007718641d0
O1       0.698270105622955d0     0.250236102495782d0     0.369213011426276d0
O1       0.301995368073695d0     0.249987007385122d0     0.369214717028816d0
Ti1      0.500198167309398d0     0.485761668506182d0     0.364758343030283d0
Ti1      0.000261424674789d0     0.248709163236136d0     0.368424970923767d0
O1       0.499968772720214d0     0.001290904293258d0     0.450124730145461d0
O1       0.001882992193933d0     0.999479849154423d0     0.422099495650131d0
O1       0.200160709670668d0     0.251765110619988d0     0.501501388164474d0
O1       0.804868989769236d0     0.250433857449407d0     0.501177009421277d0
Ti1      0.991577359399539d0     0.495510565787216d0     0.501713542289095d0
Ti1      0.487677166769312d0     0.251211530696456d0     0.495706333090304d0
O1       0.998714212082375d0     0.007037000621358d0     0.582114884664672d0
O1       0.503234561815568d0     0.003398434351355d0     0.553196718286006d0
O1       0.688383840568455d0     0.260383535404928d0     0.639150498961497d0
O1       0.310762453330441d0     0.259806748007993d0     0.637752631078754d0
Ti1      0.502508457519221d0     0.507537010658196d0     0.623465604734223d0
Ti1      0.009031099811768d0     0.262724061078668d0     0.630844416672775d0
O1       0.500093721748991d0     0.000084921243389d0     0.186906639369252d0
O1       0.004027602954032d0     0.009421780045815d0     0.683832964257368d0
O1       0.198268504441574d0     0.250236248865719d0     0.238667392858710d0
O1       0.801993766892314d0     0.249987153755059d0     0.238669098461250d0
Ti1      0.000123603383822d0     0.999897385958536d0     0.238512187198856d0
Ti1      0.500142521004230d0     0.750038178055688d0     0.238522014307695d0
O1       0.000095322930372d0     0.500084774873452d0     0.317452257936818d0
O1       0.500112315057126d0     0.500084209992886d0     0.290342007718641d0
O1       0.698270105622955d0     0.750236102495782d0     0.369213011426276d0
O1       0.301995368073695d0     0.749987007385122d0     0.369214717028816d0
Ti1      0.500001644927041d0     0.985370751416071d0     0.364779031055315d0
Ti1      0.000183276761494d0     0.748948988039575d0     0.368476322807288d0
O1       0.500059392637635d0     0.501982795260725d0     0.450034167895993d0
O1       0.001460782485842d0     0.499964783615161d0     0.422656139091726d0
O1       0.199280131819997d0     0.752876349956953d0     0.501953864323690d0
O1       0.805117669251785d0     0.751372735783920d0     0.501672169275220d0
Ti1      0.991237128166195d0     0.995187685542158d0     0.499624609920863d0
Ti1      0.487334268580653d0     0.751167911309228d0     0.495792230746482d0
O1       0.999567571655423d0     0.496515776868863d0     0.582094691031670d0
O1       0.502465303263895d0     0.503864733647012d0     0.552300290186579d0
O1       0.690000767661698d0     0.755713884327245d0     0.639320039189533d0
O1       0.312724913739653d0     0.756731214515582d0     0.638889938711766d0
Ti1      0.507373432538523d0     0.006408609035042d0     0.624544116048872d0
Ti1      0.007222625011782d0     0.785699521555194d0     0.639557074925078d0
O1       0.500093721748991d0     0.500084921243389d0     0.186906639369252d0
O1       0.198268504441574d0     0.750236248865719d0     0.238667392858710d0
O1       0.801993766892315d0     0.749987153755059d0     0.238669098461250d0
H1       0.852702825958596d0     0.501611249999469d0     0.707112391437798d0
N1       0.997816875501609d0     0.503998526534986d0     0.693824289898358d0
C1       0.134936277090635d0     0.501359512764099d0     0.739867237448511d0
H1       0.206648856133219d0     0.664732793418861d0     0.746301042794555d0
H1       0.050371499051918d0     0.458303950658219d0     0.775823334954857d0
H1       0.254124602034958d0     0.375782649044640d0     0.735073760714519d0
O1       0.495079875700352d0     0.994163434658901d0     0.859507901740061d0
H1       0.611780948869525d0     0.994180862860113d0     0.882857339156826d0
H1       0.378362951724497d0     0.994195486423397d0     0.882864570670624d0
K_POINTS automatic
4 4 1  0 0 0 
