&CONTROL
  calculation='relax',
  prefix='calc',
  pseudo_dir='/storage/coda1/p-amedford6/0/shared/rich_project_chbe-medford/medford-share/data/pseudos_module/espresso/nninc/pbe/van',
  outdir='.',
  tefield=.true.,
  dipfield=.true.,
  tprnfor=.true.,
  disk_io='none',
/
&SYSTEM
  ibrav=0,
  celldm(1)=1.8897261245650618d0,
  nat=55,
  ntyp=5,
  ecutwfc=29.39945797996531d00,
  ecutrho=293.9945797996531d00,
  nbnd=209,
  occupations='smearing',
  smearing='fd',
  degauss=0.007349864494991328d00,
  input_dft='BEEF-vdW',
  edir=3,
  emaxpos=0.9826348352370698d00,
  eopreg=0.025d00,
  eamp=0.0d00,
  nosym=.false.,
  noinv=.false.,
  nosym_evc=.false.,
  no_t_rev=.false.,
/
&ELECTRONS
  diagonalization='david',
  conv_thr=7.349864494991327e-08,
  mixing_beta=0.05d00,
  electron_maxstep=1000,
  startingpot='file',
  startingwfc='atomic',
/
&IONS
  ion_dynamics='ipi',
/
&CELL
  cell_dynamics='ipi',
/
CELL_PARAMETERS alat
    6.579727202290808d0     0.000000000000000d0     0.000000000000000d0
   -0.000775132442404d0     5.961596420607155d0     0.000000000000000d0
    0.000000000000000d0    -0.000000000000000d0    25.155947251439940d0
ATOMIC_SPECIES
Ti1 47.867d00 Ti.UPF
O1 15.999d00 O.UPF
N1 14.007d00 N.UPF
C1 12.011d00 C.UPF
H1 1.008d00 H.UPF
ATOMIC_POSITIONS {crystal}
Ti1      0.000123603383822d0     0.499897385958536d0     0.238512187198856d0
Ti1      0.500142521004230d0     0.250038178055688d0     0.238522014307695d0
O1       0.000095322930372d0     0.000084774873452d0     0.317452257936818d0
O1       0.500112315057126d0     0.000084209992886d0     0.290342007718641d0
O1       0.698270105622955d0     0.250236102495782d0     0.369213011426276d0
O1       0.301995368073695d0     0.249987007385122d0     0.369214717028816d0
Ti1      0.500198167309398d0     0.485761668506182d0     0.364758343030283d0
Ti1      0.000261424674789d0     0.248709163236136d0     0.368424970923767d0
O1       0.500803974785238d0     0.997017459072608d0     0.450908660073733d0
O1       0.001882992193933d0     0.999479849154423d0     0.422099495650131d0
O1       0.196897142022838d0     0.247578803354560d0     0.502036590724579d0
O1       0.803198625281775d0     0.248007988787593d0     0.501575840282138d0
Ti1      0.008517675768946d0     0.495913044047683d0     0.501435234188742d0
Ti1      0.511574838246499d0     0.245863796686494d0     0.496700072899098d0
O1       0.997975379926483d0     0.003508189277452d0     0.582276588514371d0
O1       0.503379631373597d0     0.998767450683567d0     0.555328886668917d0
O1       0.690852031801378d0     0.254063652643761d0     0.640902538996616d0
O1       0.308643129481881d0     0.253522411458448d0     0.639588387022916d0
Ti1      0.495328143799475d0     0.495585514281141d0     0.623184334076077d0
Ti1      0.997861843822017d0     0.259304562259529d0     0.632827379210276d0
O1       0.500093721748991d0     0.000084921243389d0     0.186906639369252d0
O1       0.006476182685694d0     0.987137519024561d0     0.685248133794402d0
O1       0.198268504441574d0     0.250236248865719d0     0.238667392858710d0
O1       0.801993766892314d0     0.249987153755059d0     0.238669098461250d0
Ti1      0.000123603383822d0     0.999897385958536d0     0.238512187198856d0
Ti1      0.500142521004230d0     0.750038178055688d0     0.238522014307695d0
O1       0.000095322930372d0     0.500084774873452d0     0.317452257936818d0
O1       0.500112315057126d0     0.500084209992886d0     0.290342007718641d0
O1       0.698270105622955d0     0.750236102495782d0     0.369213011426276d0
O1       0.301995368073695d0     0.749987007385122d0     0.369214717028816d0
Ti1      0.500001644927041d0     0.985370751416071d0     0.364779031055315d0
Ti1      0.000183276761494d0     0.748948988039575d0     0.368476322807288d0
O1       0.501269688992680d0     0.498275881187028d0     0.450778591630463d0
O1       0.001460782485842d0     0.499964783615161d0     0.422656139091726d0
O1       0.196707105154012d0     0.749049145324084d0     0.502705166998115d0
O1       0.803412121832545d0     0.748900944229441d0     0.502100936992351d0
Ti1      0.007945767461858d0     0.996037363720017d0     0.498127245917573d0
Ti1      0.511573858124394d0     0.747234422210890d0     0.496645580615702d0
O1       0.999322285629516d0     0.493882660514185d0     0.584160903210321d0
O1       0.500951665410689d0     0.496253387107530d0     0.552309700937195d0
O1       0.691399708974026d0     0.740648252668635d0     0.639518659636764d0
O1       0.309948450544182d0     0.742381451784182d0     0.637817302366644d0
Ti1      0.503745207497058d0     0.993188706050472d0     0.627773629001065d0
Ti1      0.000587778199184d0     0.783304918444566d0     0.634278848953835d0
O1       0.500093721748991d0     0.500084921243389d0     0.186906639369252d0
O1       0.198268504441574d0     0.750236248865719d0     0.238667392858710d0
O1       0.801993766892315d0     0.749987153755059d0     0.238669098461250d0
N1       0.855266151496103d0     0.530620444744332d0     0.740595549948125d0
C1       0.003671235955792d0     0.468673166764542d0     0.706690505581465d0
H1       0.145712342042877d0     0.443857200369362d0     0.728447257784645d0
H1       0.725229801615831d0     0.595999545166471d0     0.725223503617656d0
H1       0.884124301464899d0     0.573107389704671d0     0.778363031104887d0
O1       0.488221590742452d0     0.991035923152782d0     0.725657933057572d0
H1       0.579167134972034d0     0.115002376283238d0     0.733504229850172d0
H1       0.349666830781035d0     0.047450323345681d0     0.728528405647691d0
K_POINTS automatic
4 4 1  0 0 0 
