&CONTROL
  calculation='relax',
  prefix='calc',
  pseudo_dir='/storage/coda1/p-amedford6/0/shared/rich_project_chbe-medford/medford-share/data/pseudos_module/espresso/nninc/pbe/van',
  outdir='.',
  tefield=.true.,
  dipfield=.true.,
  tprnfor=.true.,
  disk_io='none',
/
&SYSTEM
  ibrav=0,
  celldm(1)=1.8897261245650618d0,
  nat=51,
  ntyp=5,
  ecutwfc=29.39945797996531d00,
  ecutrho=293.9945797996531d00,
  nbnd=206,
  occupations='smearing',
  smearing='fd',
  degauss=0.007349864494991328d00,
  input_dft='BEEF-vdW',
  edir=3,
  emaxpos=0.003656230452547815d00,
  eopreg=0.025d00,
  eamp=0.0d00,
  nosym=.false.,
  noinv=.false.,
  nosym_evc=.false.,
  no_t_rev=.false.,
/
&ELECTRONS
  diagonalization='david',
  conv_thr=7.349864494991327e-08,
  mixing_beta=0.05d00,
  electron_maxstep=1000,
  startingpot='file',
  startingwfc='atomic',
/
&IONS
  ion_dynamics='ipi',
/
&CELL
  cell_dynamics='ipi',
/
CELL_PARAMETERS alat
    6.579727202290808d0     0.000000000000000d0     0.000000000000000d0
   -0.000775132442404d0     5.961596420607155d0     0.000000000000000d0
    0.000000000000000d0    -0.000000000000000d0    25.155947251439940d0
ATOMIC_SPECIES
Ti1 47.867d00 Ti.UPF
O1 15.999d00 O.UPF
N1 14.007d00 N.UPF
C1 12.011d00 C.UPF
H1 1.008d00 H.UPF
ATOMIC_POSITIONS {crystal}
Ti1      0.000123603383822d0     0.499897385958536d0     0.238512187198856d0
Ti1      0.500142521004230d0     0.250038178055688d0     0.238522014307695d0
O1       0.000095322930372d0     0.000084774873452d0     0.317452257936818d0
O1       0.500112315057126d0     0.000084209992886d0     0.290342007718641d0
O1       0.698270105622955d0     0.250236102495782d0     0.369213011426276d0
O1       0.301995368073695d0     0.249987007385122d0     0.369214717028816d0
Ti1      0.500198167309398d0     0.485761668506182d0     0.364758343030283d0
Ti1      0.000261424674789d0     0.248709163236136d0     0.368424970923767d0
O1       0.500796053984464d0     0.002340043230096d0     0.450461634207270d0
O1       0.001882992193933d0     0.999479849154423d0     0.422099495650131d0
O1       0.196377103282878d0     0.251449468915221d0     0.501814617397880d0
O1       0.801953603723076d0     0.252856356986336d0     0.501719447262739d0
Ti1      0.008095413705545d0     0.495372457183593d0     0.501822540675169d0
Ti1      0.511310464149768d0     0.252527023762819d0     0.496198970117963d0
O1       0.001923044943334d0     0.008677711686435d0     0.583304085804221d0
O1       0.499926930039005d0     0.005266155019134d0     0.553198613887792d0
O1       0.690865781907898d0     0.259497482006087d0     0.638305371366145d0
O1       0.314387673960926d0     0.259647718042188d0     0.638770900788411d0
Ti1      0.501675376040727d0     0.508002459934740d0     0.624354264295969d0
Ti1      0.999292388691662d0     0.260746731023181d0     0.630613586141497d0
O1       0.500093721748991d0     0.000084921243389d0     0.186906639369252d0
O1       0.002386901500360d0     0.009533857481815d0     0.684958326468201d0
O1       0.198268504441574d0     0.250236248865719d0     0.238667392858710d0
O1       0.801993766892314d0     0.249987153755059d0     0.238669098461250d0
Ti1      0.000123603383822d0     0.999897385958536d0     0.238512187198856d0
Ti1      0.500142521004230d0     0.750038178055688d0     0.238522014307695d0
O1       0.000095322930372d0     0.500084774873452d0     0.317452257936818d0
O1       0.500112315057126d0     0.500084209992886d0     0.290342007718641d0
O1       0.698270105622955d0     0.750236102495782d0     0.369213011426276d0
O1       0.301995368073695d0     0.749987007385122d0     0.369214717028816d0
Ti1      0.500001644927041d0     0.985370751416071d0     0.364779031055315d0
Ti1      0.000183276761494d0     0.748948988039575d0     0.368476322807288d0
O1       0.500542284981474d0     0.503415208792931d0     0.450492478426327d0
O1       0.001460782485842d0     0.499964783615161d0     0.422656139091726d0
O1       0.196122161371673d0     0.752856162489053d0     0.502404024508608d0
O1       0.802654609309144d0     0.754427576712230d0     0.502299448414117d0
Ti1      0.008107292132033d0     0.994633691319158d0     0.499000178297174d0
Ti1      0.511306482077804d0     0.752565402660571d0     0.496467815009374d0
O1       0.001688305879722d0     0.496974382509855d0     0.583349992253755d0
O1       0.500494114990211d0     0.504886504204236d0     0.552871091987143d0
O1       0.690015447649504d0     0.758500758740628d0     0.638984169426798d0
O1       0.313626409417702d0     0.758179435063215d0     0.638875979641485d0
Ti1      0.499689114090822d0     0.007741333439921d0     0.624769839807935d0
Ti1      0.000408638643392d0     0.787758718492914d0     0.640398127253949d0
O1       0.500093721748991d0     0.500084921243389d0     0.186906639369252d0
O1       0.198268504441574d0     0.750236248865719d0     0.238667392858710d0
O1       0.801993766892315d0     0.749987153755059d0     0.238669098461250d0
N1       0.018356869823895d0     0.496638893334471d0     0.739995226106423d0
N1       0.002457313390248d0     0.505005388660330d0     0.691691611618153d0
C1       0.009961304098657d0     0.487723012789896d0     0.787196349182713d0
H1       0.111157252295701d0     0.486111015339126d0     0.820405821535843d0
K_POINTS automatic
4 4 1  0 0 0 
