&CONTROL
  calculation='relax',
  prefix='calc',
  pseudo_dir='/storage/coda1/p-amedford6/0/shared/rich_project_chbe-medford/medford-share/data/pseudos_module/espresso/nninc/pbe/van',
  outdir='.',
  tefield=.true.,
  dipfield=.true.,
  tprnfor=.true.,
  disk_io='none',
/
&SYSTEM
  ibrav=0,
  celldm(1)=1.8897261245650618d0,
  nat=53,
  ntyp=5,
  ecutwfc=29.39945797996531d00,
  ecutrho=293.9945797996531d00,
  nbnd=208,
  occupations='smearing',
  smearing='fd',
  degauss=0.007349864494991328d00,
  input_dft='BEEF-vdW',
  edir=3,
  emaxpos=0.9771146395107799d00,
  eopreg=0.025d00,
  eamp=0.0d00,
  nosym=.false.,
  noinv=.false.,
  nosym_evc=.false.,
  no_t_rev=.false.,
/
&ELECTRONS
  diagonalization='david',
  conv_thr=7.349864494991327e-08,
  mixing_beta=0.05d00,
  electron_maxstep=1000,
  startingpot='file',
  startingwfc='atomic',
/
&IONS
  ion_dynamics='ipi',
/
&CELL
  cell_dynamics='ipi',
/
CELL_PARAMETERS alat
    6.579727202290808d0     0.000000000000000d0     0.000000000000000d0
   -0.000775132442404d0     5.961596420607155d0     0.000000000000000d0
    0.000000000000000d0    -0.000000000000000d0    25.155947251439940d0
ATOMIC_SPECIES
Ti1 47.867d00 Ti.UPF
O1 15.999d00 O.UPF
N1 14.007d00 N.UPF
C1 12.011d00 C.UPF
H1 1.008d00 H.UPF
ATOMIC_POSITIONS {crystal}
Ti1      0.000123603383822d0     0.499897385958536d0     0.238512187198856d0
Ti1      0.500142521004230d0     0.250038178055688d0     0.238522014307695d0
O1       0.000095322930372d0     0.000084774873452d0     0.317452257936818d0
O1       0.500112315057126d0     0.000084209992886d0     0.290342007718641d0
O1       0.698270105622955d0     0.250236102495782d0     0.369213011426276d0
O1       0.301995368073695d0     0.249987007385122d0     0.369214717028816d0
Ti1      0.500198167309398d0     0.485761668506182d0     0.364758343030283d0
Ti1      0.000261424674789d0     0.248709163236136d0     0.368424970923767d0
O1       0.502414725678270d0     0.997887448526790d0     0.447882131879632d0
O1       0.001882992193933d0     0.999479849154423d0     0.422099495650131d0
O1       0.198435275106502d0     0.249980986111500d0     0.501533053225845d0
O1       0.807493517017077d0     0.251055188743181d0     0.501759527229170d0
Ti1      0.003514330330972d0     0.478294091352674d0     0.504895723234263d0
Ti1      0.503790255498440d0     0.220711176700727d0     0.502908099692555d0
O1       0.004442985636600d0     0.000627037661502d0     0.582174699187511d0
O1       0.503145509242060d0     0.005579513759269d0     0.551010156837328d0
O1       0.696084124007926d0     0.260565885498959d0     0.638317062589477d0
O1       0.314025023775591d0     0.262024855930414d0     0.637541924077261d0
Ti1      0.504634899922149d0     0.505737320558632d0     0.621941691211519d0
Ti1      0.997975632253247d0     0.253048248444642d0     0.631133928799396d0
O1       0.500093721748991d0     0.000084921243389d0     0.186906639369252d0
O1       0.005118657611636d0     0.004748005036007d0     0.683425828226389d0
O1       0.198268504441574d0     0.250236248865719d0     0.238667392858710d0
O1       0.801993766892314d0     0.249987153755059d0     0.238669098461250d0
Ti1      0.000123603383822d0     0.999897385958536d0     0.238512187198856d0
Ti1      0.500142521004230d0     0.750038178055688d0     0.238522014307695d0
O1       0.000095322930372d0     0.500084774873452d0     0.317452257936818d0
O1       0.500112315057126d0     0.500084209992886d0     0.290342007718641d0
O1       0.698270105622955d0     0.750236102495782d0     0.369213011426276d0
O1       0.301995368073695d0     0.749987007385122d0     0.369214717028816d0
Ti1      0.500001644927041d0     0.985370751416071d0     0.364779031055315d0
Ti1      0.000183276761494d0     0.748948988039575d0     0.368476322807288d0
O1       0.502269711722257d0     0.508504565141859d0     0.446769487486330d0
O1       0.001460782485842d0     0.499964783615161d0     0.422656139091726d0
O1       0.199042829841202d0     0.750203430554102d0     0.501686784914597d0
O1       0.807017402256899d0     0.750453870419195d0     0.501831463587812d0
Ti1      0.004917613193285d0     0.977864591014298d0     0.502232135033338d0
Ti1      0.504935306044271d0     0.740188830910962d0     0.493341533488180d0
O1       0.004409735566320d0     0.495324797887130d0     0.582844728824615d0
O1       0.503296572897219d0     0.502253630155407d0     0.550998386647735d0
O1       0.696931858499728d0     0.747184178925594d0     0.638830077913038d0
O1       0.316469566249489d0     0.750458128548635d0     0.639538172661315d0
Ti1      0.494919561692778d0     0.005769407961883d0     0.649334829507869d0
Ti1      0.995451936940873d0     0.777429796387147d0     0.639274042397950d0
O1       0.500093721748991d0     0.500084921243389d0     0.186906639369252d0
O1       0.198268504441574d0     0.750236248865719d0     0.238667392858710d0
O1       0.801993766892315d0     0.749987153755059d0     0.238669098461250d0
N1       0.007302107230552d0     0.496646455956098d0     0.691869563329627d0
C1       0.011369674533196d0     0.481655492209273d0     0.741759056228170d0
H1       0.012393620612859d0     0.630984320258007d0     0.767322639652307d0
H1       0.013303454021955d0     0.318172207015761d0     0.761732514990099d0
O1       0.500292650899104d0     0.007920503044897d0     0.721919554326533d0
H1       0.439552170804214d0     0.891390377916141d0     0.742950613742391d0
K_POINTS automatic
4 4 1  0 0 0 
