&CONTROL
  calculation='relax',
  prefix='calc',
  pseudo_dir='/storage/coda1/p-amedford6/0/shared/rich_project_chbe-medford/medford-share/data/pseudos_module/espresso/nninc/pbe/van',
  outdir='.',
  tefield=.true.,
  dipfield=.true.,
  tprnfor=.true.,
  disk_io='none',
/
&SYSTEM
  ibrav=0,
  celldm(1)=1.8897261245650618d0, 
  nat=53,
  ntyp=6,
  ecutwfc=29.39945797996531d00,
  ecutrho=293.9945797996531d00,
  nbnd=207,
  occupations='smearing',
  smearing='fd',
  degauss=0.007349864494991328d00,
  nspin=2,
  starting_magnetization(1)=0.0d00,
  starting_magnetization(2)=0.0d00,
  starting_magnetization(3)=0.2d00,
  starting_magnetization(4)=0.25d00,
  starting_magnetization(5)=0.0d00,
  starting_magnetization(6)=0.1d00,
  input_dft='BEEF-vdW',
  edir=3,
  emaxpos=0.9928887437501275d00,
  eopreg=0.025d00,
  eamp=0.0d00,
  nosym=.false.,
  noinv=.false.,
  nosym_evc=.false.,
  no_t_rev=.false.,
/
&ELECTRONS
  diagonalization='david',
  conv_thr=7.349864494991327e-08,
  mixing_beta=0.05d00,
  electron_maxstep=1000,
  startingwfc='atomic',
/
&IONS
  ion_dynamics='ipi',
/
&CELL
  cell_dynamics='ipi',
/
CELL_PARAMETERS alat
    6.579727202290808d0     0.000000000000000d0     0.000000000000000d0
   -0.000775132442404d0     5.961596420607155d0     0.000000000000000d0
    0.000000000000000d0    -0.000000000000000d0    25.155947251439940d0
ATOMIC_SPECIES
Ti1 47.867d00 Ti.UPF
O1 15.999d00 O.UPF
N1 14.007d00 N.UPF
C1 12.011d00 C.UPF
H1 1.008d00 H.UPF
H2 1.008d00 H.UPF
ATOMIC_POSITIONS {crystal}
Ti1      0.000123603383822d0     0.499897385958536d0     0.238512187198856d0
Ti1      0.500142521004230d0     0.250038178055688d0     0.238522014307695d0
O1       0.000095322930372d0     0.000084774873452d0     0.317452257936818d0
O1       0.500112315057126d0     0.000084209992886d0     0.290342007718641d0
O1       0.698270105622955d0     0.250236102495782d0     0.369213011426276d0
O1       0.301995368073695d0     0.249987007385122d0     0.369214717028816d0
Ti1      0.500198167309398d0     0.485761668506182d0     0.364758343030283d0
Ti1      0.000261424674789d0     0.248709163236136d0     0.368424970923767d0
O1       0.499196125052878d0     0.996376758150528d0     0.452005836627459d0
O1       0.001882992193933d0     0.999479849154423d0     0.422099495650131d0
O1       0.194864304938316d0     0.248168145488619d0     0.502895162881572d0
O1       0.802973555268262d0     0.247486925246246d0     0.502921653334547d0
Ti1      0.002951086696997d0     0.494348622175501d0     0.497781013101116d0
Ti1      0.502839279574858d0     0.247126335621686d0     0.497737917043298d0
O1       0.002806300819021d0     0.002672350101083d0     0.583391411424627d0
O1       0.495557874995257d0     0.997363145404476d0     0.555548971549554d0
O1       0.689784290182598d0     0.240294001562664d0     0.640209028585595d0
O1       0.307687417209197d0     0.246972099010804d0     0.643935017781416d0
Ti1      0.503934027698391d0     0.493691450211594d0     0.626657502645980d0
Ti1      0.000939582265677d0     0.233476033074331d0     0.636416767183819d0
O1       0.500093721748991d0     0.000084921243389d0     0.186906639369252d0
O1       0.999563032958681d0     0.979649376621412d0     0.684052502604716d0
O1       0.198268504441574d0     0.250236248865719d0     0.238667392858710d0
O1       0.801993766892314d0     0.249987153755059d0     0.238669098461250d0
Ti1      0.000123603383822d0     0.999897385958536d0     0.238512187198856d0
Ti1      0.500142521004230d0     0.750038178055688d0     0.238522014307695d0
O1       0.000095322930372d0     0.500084774873452d0     0.317452257936818d0
O1       0.500112315057126d0     0.500084209992886d0     0.290342007718641d0
O1       0.698270105622955d0     0.750236102495782d0     0.369213011426276d0
O1       0.301995368073695d0     0.749987007385122d0     0.369214717028816d0
Ti1      0.500001644927041d0     0.985370751416071d0     0.364779031055315d0
Ti1      0.000183276761494d0     0.748948988039575d0     0.368476322807288d0
O1       0.499501856746784d0     0.497875145956577d0     0.451844914647388d0
O1       0.001460782485842d0     0.499964783615161d0     0.422656139091726d0
O1       0.194298858733381d0     0.745813744992883d0     0.503712606412521d0
O1       0.802963766387977d0     0.746768405568055d0     0.503728537351030d0
Ti1      0.001250349203490d0     0.995421497879101d0     0.497021688437496d0
Ti1      0.503005644183579d0     0.746510269881583d0     0.498065082154905d0
O1       0.999646142256471d0     0.488249317526485d0     0.593412362320285d0
O1       0.497949797683348d0     0.494508768466235d0     0.555124085168599d0
O1       0.690257305283708d0     0.745264655022297d0     0.638845091111913d0
O1       0.308492633986308d0     0.739682029837071d0     0.641627011459532d0
Ti1      0.496758867192437d0     0.993405922402911d0     0.627100809863756d0
Ti1      0.000377686308004d0     0.773272310062116d0     0.631378142370742d0
O1       0.500093721748991d0     0.500084921243389d0     0.186906639369252d0
O1       0.198268504441574d0     0.750236248865719d0     0.238667392858710d0
O1       0.801993766892315d0     0.749987153755059d0     0.238669098461250d0
N1       0.952147013719710d0     0.442223258062882d0     0.721745980994215d0
C1       0.134252242613771d0     0.450344793972689d0     0.759094379303948d0
H1       0.191872743695607d0     0.621297049104558d0     0.757656130175061d0
H1       0.083291007956213d0     0.406620563985905d0     0.798870848131003d0
H2       0.247451538595479d0     0.333863856403067d0     0.744250658548688d0
N1       0.785231208801075d0     0.475126653479720d0     0.738229882472413d0
K_POINTS automatic
4 4 1  0 0 0 
