&CONTROL
  calculation='relax',
  prefix='calc',
  pseudo_dir='/storage/coda1/p-amedford6/0/shared/rich_project_chbe-medford/medford-share/data/pseudos_module/espresso/nninc/pbe/van',
  outdir='.',
  tefield=.true.,
  dipfield=.true.,
  tprnfor=.true.,
  disk_io='none',
/
&SYSTEM
  ibrav=0,
  celldm(1)=1.8897261245650618d0,
  nat=53,
  ntyp=5,
  ecutwfc=29.39945797996531d00,
  ecutrho=293.9945797996531d00,
  nbnd=207,
  occupations='smearing',
  smearing='fd',
  degauss=0.007349864494991328d00,
  input_dft='BEEF-vdW',
  edir=3,
  emaxpos=0.9834653095730501d00,
  eopreg=0.025d00,
  eamp=0.0d00,
  nosym=.false.,
  noinv=.false.,
  nosym_evc=.false.,
  no_t_rev=.false.,
/
&ELECTRONS
  diagonalization='david',
  conv_thr=7.349864494991327e-08,
  mixing_beta=0.05d00,
  electron_maxstep=1000,
  startingpot='file',
  startingwfc='atomic',
/
&IONS
  ion_dynamics='ipi',
/
&CELL
  cell_dynamics='ipi',
/
CELL_PARAMETERS alat
    6.579727202290808d0     0.000000000000000d0     0.000000000000000d0
   -0.000775132442404d0     5.961596420607155d0     0.000000000000000d0
    0.000000000000000d0    -0.000000000000000d0    25.155947251439940d0
ATOMIC_SPECIES
Ti1 47.867d00 Ti.UPF
O1 15.999d00 O.UPF
N1 14.007d00 N.UPF
C1 12.011d00 C.UPF
H1 1.008d00 H.UPF
ATOMIC_POSITIONS {crystal}
Ti1      0.000123603383822d0     0.499897385958536d0     0.238512187198856d0
Ti1      0.500142521004230d0     0.250038178055688d0     0.238522014307695d0
O1       0.000095322930372d0     0.000084774873452d0     0.317452257936818d0
O1       0.500112315057126d0     0.000084209992886d0     0.290342007718641d0
O1       0.698270105622955d0     0.250236102495782d0     0.369213011426276d0
O1       0.301995368073695d0     0.249987007385122d0     0.369214717028816d0
Ti1      0.500198167309398d0     0.485761668506182d0     0.364758343030283d0
Ti1      0.000261424674789d0     0.248709163236136d0     0.368424970923767d0
O1       0.501277356192535d0     0.997527882034905d0     0.450514081498719d0
O1       0.001882992193933d0     0.999479849154423d0     0.422099495650131d0
O1       0.197903535520305d0     0.247534984689069d0     0.501552791358227d0
O1       0.803117717556616d0     0.246391680125941d0     0.501166553050939d0
Ti1      0.010068045300382d0     0.504730371946005d0     0.501742041335270d0
Ti1      0.515302415360721d0     0.247676739230636d0     0.496008754648335d0
O1       0.999464699899876d0     0.000048672237035d0     0.582028406489303d0
O1       0.502848362523638d0     0.999536900635464d0     0.553772014154474d0
O1       0.690017856713463d0     0.253508783489435d0     0.638977251394048d0
O1       0.311986419097232d0     0.253374770679967d0     0.639456889167468d0
Ti1      0.502222930809943d0     0.502059940072945d0     0.623960026658910d0
Ti1      0.004299544204958d0     0.253510012472825d0     0.629942114302252d0
O1       0.500093721748991d0     0.000084921243389d0     0.186906639369252d0
O1       0.005596767627239d0     0.002148522672980d0     0.683697640758377d0
O1       0.198268504441574d0     0.250236248865719d0     0.238667392858710d0
O1       0.801993766892314d0     0.249987153755059d0     0.238669098461250d0
Ti1      0.000123603383822d0     0.999897385958536d0     0.238512187198856d0
Ti1      0.500142521004230d0     0.750038178055688d0     0.238522014307695d0
O1       0.000095322930372d0     0.500084774873452d0     0.317452257936818d0
O1       0.500112315057126d0     0.500084209992886d0     0.290342007718641d0
O1       0.698270105622955d0     0.750236102495782d0     0.369213011426276d0
O1       0.301995368073695d0     0.749987007385122d0     0.369214717028816d0
Ti1      0.500001644927041d0     0.985370751416071d0     0.364779031055315d0
Ti1      0.000183276761494d0     0.748948988039575d0     0.368476322807288d0
O1       0.501610416643517d0     0.498818277674359d0     0.450364772769686d0
O1       0.001460782485842d0     0.499964783615161d0     0.422656139091726d0
O1       0.197687684138007d0     0.749206206344986d0     0.502259211728007d0
O1       0.803696626583502d0     0.747144779331124d0     0.501784053371475d0
Ti1      0.011633748087131d0     0.004090702938142d0     0.499263633907681d0
Ti1      0.515063645354536d0     0.747558141031616d0     0.496179047177722d0
O1       0.002633443789799d0     0.490836907172600d0     0.582172489538230d0
O1       0.502142502708283d0     0.498515687740368d0     0.552704015698606d0
O1       0.690783913534384d0     0.748723090868389d0     0.639743938344067d0
O1       0.312485251608135d0     0.749903743052519d0     0.638723564006619d0
Ti1      0.506106058878643d0     0.000304355615845d0     0.625103863135675d0
Ti1      0.006802828987041d0     0.777452341763896d0     0.639819722769293d0
O1       0.500093721748991d0     0.500084921243389d0     0.186906639369252d0
O1       0.198268504441574d0     0.750236248865719d0     0.238667392858710d0
O1       0.801993766892315d0     0.749987153755059d0     0.238669098461250d0
N1       0.155878371522916d0     0.471383049407705d0     0.736724558728091d0
N1       0.998613644667291d0     0.494290764714153d0     0.693850684333440d0
C1       0.184306802657392d0     0.591802588425162d0     0.777955237751853d0
H1       0.076645380762502d0     0.732126873464551d0     0.780023979776848d0
H1       0.240861721032009d0     0.333381615414693d0     0.729102732721048d0
H1       0.864744829735233d0     0.496214305118034d0     0.713701025166455d0
K_POINTS automatic
4 4 1  0 0 0 
