&CONTROL
  calculation='relax',
  prefix='calc',
  pseudo_dir='/storage/coda1/p-amedford6/0/shared/rich_project_chbe-medford/medford-share/data/pseudos_module/espresso/nninc/pbe/van',
  outdir='.',
  tefield=.true.,
  dipfield=.true.,
  tprnfor=.true.,
  disk_io='none',
/
&SYSTEM
  ibrav=0,
  celldm(1)=1.8897261245650618d0,
  nat=53,
  ntyp=5,
  ecutwfc=29.39945797996531d00,
  ecutrho=293.9945797996531d00,
  nbnd=205,
  occupations='smearing',
  smearing='fd',
  degauss=0.007349864494991328d00,
  input_dft='BEEF-vdW',
  edir=3,
  emaxpos=0.9804830307704321d00,
  eopreg=0.025d00,
  eamp=0.0d00,
  nosym=.false.,
  noinv=.false.,
  nosym_evc=.false.,
  no_t_rev=.false.,
/
&ELECTRONS
  diagonalization='david',
  conv_thr=7.349864494991327e-08,
  mixing_beta=0.05d00,
  electron_maxstep=1000,
  startingpot='file',
  startingwfc='atomic',
/
&IONS
  ion_dynamics='ipi',
/
&CELL
  cell_dynamics='ipi',
/
CELL_PARAMETERS alat
    6.579727202290808d0     0.000000000000000d0     0.000000000000000d0
   -0.000775132442404d0     5.961596420607155d0     0.000000000000000d0
    0.000000000000000d0    -0.000000000000000d0    25.155947251439940d0
ATOMIC_SPECIES
Ti1 47.867d00 Ti.UPF
O1 15.999d00 O.UPF
N1 14.007d00 N.UPF
C1 12.011d00 C.UPF
H1 1.008d00 H.UPF
ATOMIC_POSITIONS {crystal}
Ti1      0.000123603383822d0     0.499897385958536d0     0.238512187198856d0
Ti1      0.500142521004230d0     0.250038178055688d0     0.238522014307695d0
O1       0.000095322930372d0     0.000084774873452d0     0.317452257936818d0
O1       0.500112315057126d0     0.000084209992886d0     0.290342007718641d0
O1       0.698270105622955d0     0.250236102495782d0     0.369213011426276d0
O1       0.301995368073695d0     0.249987007385122d0     0.369214717028816d0
Ti1      0.500198167309398d0     0.485761668506182d0     0.364758343030283d0
Ti1      0.000261424674789d0     0.248709163236136d0     0.368424970923767d0
O1       0.503377512957970d0     0.999179114245934d0     0.452512529283999d0
O1       0.001882992193933d0     0.999479849154423d0     0.422099495650131d0
O1       0.198736156528312d0     0.248907250006458d0     0.504687315316377d0
O1       0.808049960773016d0     0.250022064348156d0     0.504413633392703d0
Ti1      0.004909264563454d0     0.497087268757102d0     0.497142675921051d0
Ti1      0.506861477385157d0     0.246180474502829d0     0.498514524895725d0
O1       0.998911371517179d0     0.985575943148567d0     0.584483838593752d0
O1       0.505993582746853d0     0.998814787233008d0     0.556713511870731d0
O1       0.693378836740611d0     0.256345784102177d0     0.643564694607475d0
O1       0.311701302183777d0     0.253480019799459d0     0.641019177306108d0
Ti1      0.502978130437077d0     0.503713751149504d0     0.626913970167163d0
Ti1      0.005346010665571d0     0.216154459295337d0     0.631097601464637d0
O1       0.500093721748991d0     0.000084921243389d0     0.186906639369252d0
O1       0.003665246501038d0     0.022257335616453d0     0.685937046447333d0
O1       0.198268504441574d0     0.250236248865719d0     0.238667392858710d0
O1       0.801993766892314d0     0.249987153755059d0     0.238669098461250d0
Ti1      0.000123603383822d0     0.999897385958536d0     0.238512187198856d0
Ti1      0.500142521004230d0     0.750038178055688d0     0.238522014307695d0
O1       0.000095322930372d0     0.500084774873452d0     0.317452257936818d0
O1       0.500112315057126d0     0.500084209992886d0     0.290342007718641d0
O1       0.698270105622955d0     0.750236102495782d0     0.369213011426276d0
O1       0.301995368073695d0     0.749987007385122d0     0.369214717028816d0
Ti1      0.500001644927041d0     0.985370751416071d0     0.364779031055315d0
Ti1      0.000183276761494d0     0.748948988039575d0     0.368476322807288d0
O1       0.502711201860372d0     0.497287420220569d0     0.452314517111583d0
O1       0.001460782485842d0     0.499964783615161d0     0.422656139091726d0
O1       0.199369936326925d0     0.747771925271530d0     0.503356566588659d0
O1       0.807690610218914d0     0.746961595533473d0     0.502991047213656d0
Ti1      0.005949591662320d0     0.995575960285185d0     0.497234411484577d0
Ti1      0.506887939121326d0     0.745859109845981d0     0.498161368423793d0
O1       0.001947108789416d0     0.506085073888465d0     0.596048817636003d0
O1       0.504964545507174d0     0.502714103231797d0     0.555682727943466d0
O1       0.690782382134657d0     0.751183368830043d0     0.645251316292131d0
O1       0.311680539307357d0     0.751320630004134d0     0.644294265902271d0
Ti1      0.505884871225266d0     0.003260058317857d0     0.628288539917830d0
Ti1      0.009386648452731d0     0.756505595355653d0     0.638750861675610d0
O1       0.500093721748991d0     0.500084921243389d0     0.186906639369252d0
O1       0.198268504441574d0     0.750236248865719d0     0.238667392858710d0
O1       0.801993766892315d0     0.749987153755059d0     0.238669098461250d0
N1       0.944889009797337d0     0.574108432272429d0     0.724487450269582d0
C1       0.111400737000837d0     0.527222900782407d0     0.757098244406789d0
H1       0.177684415994055d0     0.362790563375078d0     0.754336702815867d0
H1       0.866490160874876d0     0.714457498664207d0     0.735194838159885d0
H1       0.847228898793929d0     0.443263463218470d0     0.719938802885197d0
H1       0.191476061556983d0     0.667412397815861d0     0.774059422171612d0
K_POINTS automatic
4 4 1  0 0 0 
