&CONTROL
  calculation='relax',
  prefix='calc',
  pseudo_dir='/storage/coda1/p-amedford6/0/shared/rich_project_chbe-medford/medford-share/data/pseudos_module/espresso/nninc/pbe/van',
  outdir='.',
  tefield=.true.,
  dipfield=.true.,
  tprnfor=.true.,
  disk_io='none',
/
&SYSTEM
  ibrav=0,
  celldm(1)=1.8897261245650618d0,
  nat=52,
  ntyp=5,
  ecutwfc=29.39945797996531d00,
  ecutrho=293.9945797996531d00,
  nbnd=207,
  occupations='smearing',
  smearing='fd',
  degauss=0.007349864494991328d00,
  input_dft='BEEF-vdW',
  edir=3,
  emaxpos=0.9869987882247284d00,
  eopreg=0.025d00,
  eamp=0.0d00,
  nosym=.false.,
  noinv=.false.,
  nosym_evc=.false.,
  no_t_rev=.false.,
/
&ELECTRONS
  diagonalization='david',
  conv_thr=7.349864494991327e-08,
  mixing_beta=0.05d00,
  electron_maxstep=1000,
  startingpot='file',
  startingwfc='atomic',
/
&IONS
  ion_dynamics='ipi',
/
&CELL
  cell_dynamics='ipi',
/
CELL_PARAMETERS alat
    6.579727202290808d0     0.000000000000000d0     0.000000000000000d0
   -0.000775132442404d0     5.961596420607155d0     0.000000000000000d0
    0.000000000000000d0    -0.000000000000000d0    25.155947251439940d0
ATOMIC_SPECIES
Ti1 47.867d00 Ti.UPF
O1 15.999d00 O.UPF
N1 14.007d00 N.UPF
C1 12.011d00 C.UPF
H1 1.008d00 H.UPF
ATOMIC_POSITIONS {crystal}
Ti1      0.000123603383822d0     0.499897385958536d0     0.238512187198856d0
Ti1      0.500142521004230d0     0.250038178055688d0     0.238522014307695d0
O1       0.000095322930372d0     0.000084774873452d0     0.317452257936818d0
O1       0.500112315057126d0     0.000084209992886d0     0.290342007718641d0
O1       0.698270105622955d0     0.250236102495782d0     0.369213011426276d0
O1       0.301995368073695d0     0.249987007385122d0     0.369214717028816d0
Ti1      0.500198167309398d0     0.485761668506182d0     0.364758343030283d0
Ti1      0.000261424674789d0     0.248709163236136d0     0.368424970923767d0
O1       0.502859252746245d0     0.997478629845132d0     0.451851917762781d0
O1       0.001882992193933d0     0.999479849154423d0     0.422099495650131d0
O1       0.200032780794648d0     0.248291064579988d0     0.503253694006786d0
O1       0.807680292947775d0     0.248018035759839d0     0.503140273084692d0
Ti1      0.005475649124937d0     0.496000064283850d0     0.498888158455068d0
Ti1      0.506449956936000d0     0.246291842835022d0     0.497603767986980d0
O1       0.004483179357190d0     0.995802674448845d0     0.583750910697523d0
O1       0.505621262781649d0     0.997676854417690d0     0.556202596834460d0
O1       0.695925918801848d0     0.251711175524213d0     0.643104295710352d0
O1       0.313930412407099d0     0.250473028011754d0     0.642071691444648d0
Ti1      0.505441812246822d0     0.497012823309520d0     0.625564150314055d0
Ti1      0.008646210069320d0     0.222762915910043d0     0.635494739925782d0
O1       0.500093721748991d0     0.000084921243389d0     0.186906639369252d0
O1       0.006124051576250d0     0.999112028389580d0     0.684260756867229d0
O1       0.198268504441574d0     0.250236248865719d0     0.238667392858710d0
O1       0.801993766892314d0     0.249987153755059d0     0.238669098461250d0
Ti1      0.000123603383822d0     0.999897385958536d0     0.238512187198856d0
Ti1      0.500142521004230d0     0.750038178055688d0     0.238522014307695d0
O1       0.000095322930372d0     0.500084774873452d0     0.317452257936818d0
O1       0.500112315057126d0     0.500084209992886d0     0.290342007718641d0
O1       0.698270105622955d0     0.750236102495782d0     0.369213011426276d0
O1       0.301995368073695d0     0.749987007385122d0     0.369214717028816d0
Ti1      0.500001644927041d0     0.985370751416071d0     0.364779031055315d0
Ti1      0.000183276761494d0     0.748948988039575d0     0.368476322807288d0
O1       0.503270483836592d0     0.497164672350803d0     0.451622054213607d0
O1       0.001460782485842d0     0.499964783615161d0     0.422656139091726d0
O1       0.200286252154520d0     0.747786262601912d0     0.503052562252958d0
O1       0.807465111001347d0     0.748120599924671d0     0.503013905798613d0
Ti1      0.005425956160323d0     0.996112919171432d0     0.497051881772717d0
Ti1      0.506312732017012d0     0.745813290073988d0     0.497428262443868d0
O1       0.004043161344194d0     0.499642410956384d0     0.590242293975197d0
O1       0.505254174665296d0     0.497750450350778d0     0.554485811049546d0
O1       0.695833315181174d0     0.744355062955974d0     0.642954317588485d0
O1       0.313892640356023d0     0.744980528595055d0     0.642307656558202d0
Ti1      0.506435233846026d0     0.997311096592784d0     0.627557241643659d0
Ti1      0.005347048418442d0     0.758805307902814d0     0.632344912668848d0
O1       0.500093721748991d0     0.500084921243389d0     0.186906639369252d0
O1       0.198268504441574d0     0.750236248865719d0     0.238667392858710d0
O1       0.801993766892315d0     0.749987153755059d0     0.238669098461250d0
N1       0.134467769611900d0     0.526631218606678d0     0.741472479013809d0
C1       0.287438120432623d0     0.523255003060969d0     0.766556108646916d0
H1       0.368557793626853d0     0.653702591427201d0     0.787090937080205d0
N1       0.996879206525982d0     0.499994164952416d0     0.706957234901662d0
H1       0.857723556002975d0     0.484635274136383d0     0.724564021820631d0
K_POINTS automatic
4 4 1  0 0 0 
