&CONTROL
  calculation='relax',
  prefix='calc',
  pseudo_dir='/storage/coda1/p-amedford6/0/shared/rich_project_chbe-medford/medford-share/data/pseudos_module/espresso/nninc/pbe/van',
  outdir='.',
  tefield=.true.,
  dipfield=.true.,
  tprnfor=.true.,
  disk_io='none',
/
&SYSTEM
  ibrav=0,
  celldm(1)=1.8897261245650618d0,
  nat=53,
  ntyp=4,
  ecutwfc=29.39945797996531d00,
  ecutrho=293.9945797996531d00,
  nbnd=206,
  occupations='smearing',
  smearing='fd',
  degauss=0.007349864494991328d00,
  input_dft='BEEF-vdW',
  edir=3,
  emaxpos=0.9651843416169068d00,
  eopreg=0.025d00,
  eamp=0.0d00,
  nosym=.false.,
  noinv=.false.,
  nosym_evc=.false.,
  no_t_rev=.false.,
/
&ELECTRONS
  diagonalization='david',
  conv_thr=7.349864494991327e-08,
  mixing_beta=0.05d00,
  electron_maxstep=1000,
  startingpot='file',
  startingwfc='atomic',
/
&IONS
  ion_dynamics='ipi',
/
&CELL
  cell_dynamics='ipi',
/
CELL_PARAMETERS alat
    6.579727202290808d0     0.000000000000000d0     0.000000000000000d0
   -0.000775132442404d0     5.961596420607155d0     0.000000000000000d0
    0.000000000000000d0    -0.000000000000000d0    25.155947251439940d0
ATOMIC_SPECIES
Ti1 47.867d00 Ti.UPF
O1 15.999d00 O.UPF
C1 12.011d00 C.UPF
H1 1.008d00 H.UPF
ATOMIC_POSITIONS {crystal}
Ti1      0.000123603383822d0     0.499897385958537d0     0.238512187198856d0
Ti1      0.500142521004230d0     0.250038178055688d0     0.238522014307695d0
O1       0.000095322930372d0     0.000084774873452d0     0.317452257936818d0
O1       0.500112315057126d0     0.000084209992886d0     0.290342007718641d0
O1       0.698270105622955d0     0.250236102495782d0     0.369213011426276d0
O1       0.301995368073695d0     0.249987007385122d0     0.369214717028816d0
Ti1      0.498424572353274d0     0.480283140787616d0     0.364513634347239d0
Ti1      0.998797436867288d0     0.239732431729703d0     0.372658034593286d0
O1       0.497397151059002d0     0.999141228322904d0     0.450842855455851d0
O1       0.999651048945824d0     0.997294684474043d0     0.419794644736149d0
O1       0.191631947536451d0     0.249214504249358d0     0.502221815831228d0
O1       0.798862254161572d0     0.249561118904153d0     0.501331389660754d0
Ti1      0.009887520625712d0     0.495516580279699d0     0.509695114672513d0
Ti1      0.514279311446768d0     0.245915004165424d0     0.496722172792220d0
O1       0.994955449255644d0     0.992757844781870d0     0.580042102185501d0
O1       0.497652207711235d0     0.002884211850591d0     0.554607529917606d0
O1       0.686375710667719d0     0.260604838402555d0     0.637695430903451d0
O1       0.303718052576504d0     0.260701106674114d0     0.637813325443583d0
Ti1      0.494433785417656d0     0.505518059184343d0     0.623400922404199d0
Ti1      0.996608084100079d0     0.271062051145868d0     0.641971244215625d0
O1       0.500093721748991d0     0.000084921243389d0     0.186906639369252d0
O1       0.995473925474614d0     0.004789114788159d0     0.685340281174603d0
O1       0.198268504441574d0     0.250236248865719d0     0.238667392858710d0
O1       0.801993766892314d0     0.249987153755059d0     0.238669098461250d0
Ti1      0.000123603383822d0     0.999897385958537d0     0.238512187198856d0
Ti1      0.500142521004230d0     0.750038178055688d0     0.238522014307695d0
O1       0.000095322930372d0     0.500084774873452d0     0.317452257936818d0
O1       0.500112315057126d0     0.500084209992886d0     0.290342007718641d0
O1       0.698270105622955d0     0.750236102495782d0     0.369213011426276d0
O1       0.301995368073695d0     0.749987007385122d0     0.369214717028816d0
Ti1      0.499614700368304d0     0.980344423932609d0     0.364241305923554d0
Ti1      0.999265515582608d0     0.738886415785033d0     0.372629807977223d0
O1       0.498103002303578d0     0.498286334471506d0     0.450712832537377d0
O1       0.999735054096786d0     0.497198903311333d0     0.419673713968423d0
O1       0.192040756611020d0     0.745731675346065d0     0.501958254668888d0
O1       0.798567007743300d0     0.747028718684730d0     0.501021477804577d0
Ti1      0.008244977904029d0     0.995202076560537d0     0.507708152008261d0
Ti1      0.513916942788096d0     0.747261345357085d0     0.495949620463516d0
O1       0.996728807850181d0     0.497718473116693d0     0.583397308148640d0
O1       0.496226117327575d0     0.501445094826366d0     0.552265944567978d0
O1       0.685446533721787d0     0.752040382714816d0     0.637338677589412d0
O1       0.304555382136077d0     0.752095295094193d0     0.637381541165985d0
Ti1      0.498086213374506d0     0.004884486051832d0     0.627548050643410d0
Ti1      0.997404476927872d0     0.775652292064061d0     0.640326674058788d0
O1       0.500093721748991d0     0.500084921243389d0     0.186906639369252d0
O1       0.198268504441574d0     0.750236248865719d0     0.238667392858710d0
O1       0.801993766892315d0     0.749987153755059d0     0.238669098461250d0
C1       0.991932478462672d0     0.503036564395916d0     0.699113919422870d0
H1       0.129778937286781d0     0.523744571404122d0     0.723460291936413d0
H1       0.854820742805206d0     0.522509030781687d0     0.722581084430673d0
O1       0.495686672091109d0     0.003769823826528d0     0.721484523212798d0
H1       0.616084575006872d0     0.999243139480853d0     0.743462043864561d0
H1       0.374419070826968d0     0.000085473952770d0     0.743138543526478d0
K_POINTS automatic
4 4 1  0 0 0 
