&CONTROL
  calculation='relax',
  prefix='calc',
  pseudo_dir='/gpfs/pace1/project/chbe-medford/medford-share/data/pseudos/SSSP_eff_PBE',
  outdir='.',
  tprnfor=.true.,
/
&SYSTEM
  ibrav=0,
  celldm(1)=1.8897261245650618d0,
  nat=3,
  ntyp=3,
  ecutwfc=29.3994590327d0,
  ecutrho=293.994590327d0,
  nbnd=22,
  occupations='smearing',
  smearing='fd',
  degauss=0.00734986475817d0,
  nspin=2,
  starting_magnetization(1)=0.0111111111111d0,
  starting_magnetization(2)=0.0d0,
  starting_magnetization(3)=0.0333333333333d0,
  input_dft='BEEF-vdW',
  ensemble_energies=.true.,
  print_ensemble_energies=.true.,
/
&ELECTRONS
  diagonalization='david',
  conv_thr=7.34986475817e-08,
  mixing_beta=0.05d0,
  electron_maxstep=100,
  startingwfc='atomic',
  conv_thr=7.34986475817e-08,
/
&IONS
  ion_dynamics='ase3',
/
CELL_PARAMETERS
    7.131218000000001d0     0.000000000000000d0     0.000000000000000d0
    0.000000000000000d0     7.131218000000001d0     0.000000000000000d0
    0.000000000000000d0     0.000000000000000d0     7.131218000000001d0
ATOMIC_SPECIES
N1 14.0067d0 N.UPF
N2 14.0067d0 N.UPF
O1 15.9994d0 O.UPF
ATOMIC_POSITIONS {crystal}
N1       0.500000000000000d0     0.500000000000000d0     0.327242835655844d0
N2       0.500000000000000d0     0.500000000000000d0     0.491466955574770d0
O1       0.500000000000000d0     0.500000000000000d0     0.658629002787462d0
K_POINTS automatic
1 1 1 0 0 0
