&CONTROL
  calculation='relax',
  prefix='calc',
  pseudo_dir='/storage/coda1/p-amedford6/0/shared/rich_project_chbe-medford/medford-share/data/pseudos_module/espresso/nninc/pbe/van',
  outdir='.',
  tefield=.true.,
  dipfield=.true.,
  tprnfor=.true.,
  disk_io='none',
/
&SYSTEM
  ibrav=0,
  celldm(1)=1.8897261245650618d0,
  nat=50,
  ntyp=4,
  ecutwfc=29.39945797996531d00,
  ecutrho=293.9945797996531d00,
  nbnd=202,
  occupations='smearing',
  smearing='fd',
  degauss=0.007349864494991328d00,
  input_dft='BEEF-vdW',
  edir=3,
  emaxpos=0.9520517296851205d00,
  eopreg=0.025d00,
  eamp=0.0d00,
  nosym=.false.,
  noinv=.false.,
  nosym_evc=.false.,
  no_t_rev=.false.,
/
&ELECTRONS
  diagonalization='david',
  conv_thr=7.349864494991327e-08,
  mixing_beta=0.05d00,
  electron_maxstep=1000,
  startingpot='file',
  startingwfc='atomic',
/
&IONS
  ion_dynamics='ipi',
/
&CELL
  cell_dynamics='ipi',
/
CELL_PARAMETERS alat
    6.579727202290808d0     0.000000000000000d0     0.000000000000000d0
   -0.000775132442404d0     5.961596420607155d0     0.000000000000000d0
    0.000000000000000d0    -0.000000000000000d0    25.155947251439940d0
ATOMIC_SPECIES
Ti1 47.867d00 Ti.UPF
O1 15.999d00 O.UPF
H1 1.008d00 H.UPF
N1 14.007d00 N.UPF
ATOMIC_POSITIONS {crystal}
Ti1      0.000123603383822d0     0.499897385958536d0     0.238512187198856d0
Ti1      0.500142521004230d0     0.250038178055688d0     0.238522014307695d0
O1       0.000095322930372d0     0.000084774873452d0     0.317452257936818d0
O1       0.500112315057126d0     0.000084209992886d0     0.290342007718641d0
O1       0.698270105622955d0     0.250236102495782d0     0.369213011426276d0
O1       0.301995368073695d0     0.249987007385122d0     0.369214717028816d0
Ti1      0.500198167309398d0     0.485761668506182d0     0.364758343030283d0
Ti1      0.000261424674789d0     0.248709163236136d0     0.368424970923767d0
O1       0.505594415694650d0     0.998828785444626d0     0.450520016536418d0
O1       0.001882992193933d0     0.999479849154423d0     0.422099495650131d0
O1       0.205036710551659d0     0.248231205951651d0     0.501087459963181d0
O1       0.809092363892140d0     0.247914756382579d0     0.501905242027166d0
Ti1      0.003863772244259d0     0.502005771423493d0     0.501696274028490d0
Ti1      0.501817845224015d0     0.248172423157999d0     0.496188258897660d0
O1       0.010092285039079d0     0.002643477598039d0     0.582709270162437d0
O1       0.506453930328222d0     0.000688922162659d0     0.553705703513662d0
O1       0.699071635377743d0     0.256884839149665d0     0.638579702555742d0
O1       0.321646224273751d0     0.256528316945697d0     0.639011641855405d0
Ti1      0.509174491125831d0     0.504702277423809d0     0.623962113845579d0
Ti1      0.008096701201500d0     0.258262177157574d0     0.629822095512648d0
O1       0.500093721748991d0     0.000084921243389d0     0.186906639369252d0
O1       0.009505332553521d0     0.007405077800862d0     0.684485621170709d0
O1       0.198268504441574d0     0.250236248865719d0     0.238667392858710d0
O1       0.801993766892314d0     0.249987153755059d0     0.238669098461250d0
Ti1      0.000123603383822d0     0.999897385958536d0     0.238512187198856d0
Ti1      0.500142521004230d0     0.750038178055688d0     0.238522014307695d0
O1       0.000095322930372d0     0.500084774873452d0     0.317452257936818d0
O1       0.500112315057126d0     0.500084209992886d0     0.290342007718641d0
O1       0.698270105622955d0     0.750236102495782d0     0.369213011426276d0
O1       0.301995368073695d0     0.749987007385122d0     0.369214717028816d0
Ti1      0.500001644927041d0     0.985370751416071d0     0.364779031055315d0
Ti1      0.000183276761494d0     0.748948988039575d0     0.368476322807288d0
O1       0.505604698695312d0     0.499620089374497d0     0.450408653603647d0
O1       0.001460782485842d0     0.499964783615161d0     0.422656139091726d0
O1       0.204212037421740d0     0.749441848791856d0     0.501559531357023d0
O1       0.809804274474256d0     0.749975706789555d0     0.502376733346289d0
Ti1      0.002585318666076d0     0.001149390281959d0     0.499592116110753d0
Ti1      0.501826220214759d0     0.748098186068565d0     0.496254437231022d0
O1       0.009384324987833d0     0.492015383720981d0     0.581910215344335d0
O1       0.506707178125389d0     0.501557523651129d0     0.552721075975276d0
O1       0.698774026649518d0     0.752722510116308d0     0.639720340822114d0
O1       0.321431625097966d0     0.752945531943016d0     0.640010243993715d0
Ti1      0.508693270989725d0     0.004042060171809d0     0.625030030923310d0
Ti1      0.009100046830267d0     0.782892214756629d0     0.641401079932672d0
O1       0.500093721748991d0     0.500084921243389d0     0.186906639369252d0
O1       0.198268504441574d0     0.750236248865719d0     0.238667392858710d0
O1       0.801993766892315d0     0.749987153755059d0     0.238669098461250d0
H1       0.890716385785145d0     0.487054172923459d0     0.717196820000988d0
H1       0.138312527259706d0     0.485311104540930d0     0.715458704060409d0
N1       0.013704355218361d0     0.498627627726946d0     0.692460427124808d0
K_POINTS automatic
4 4 1  0 0 0 
