&CONTROL
  calculation='relax',
  prefix='calc',
  pseudo_dir='/storage/coda1/p-amedford6/0/shared/rich_project_chbe-medford/medford-share/data/pseudos_module/espresso/nninc/pbe/van',
  outdir='.',
  tefield=.true.,
  dipfield=.true.,
  tprnfor=.true.,
  disk_io='none',
/
&SYSTEM
  ibrav=0,
  celldm(1)=1.8897261245650618d0,
  nat=55,
  ntyp=5,
  ecutwfc=29.39945797996531d00,
  ecutrho=293.9945797996531d00,
  nbnd=208,
  occupations='smearing',
  smearing='fd',
  degauss=0.007349864494991328d00,
  input_dft='BEEF-vdW',
  edir=3,
  emaxpos=0.9767436579339812d00,
  eopreg=0.025d00,
  eamp=0.0d00,
  nosym=.false.,
  noinv=.false.,
  nosym_evc=.false.,
  no_t_rev=.false.,
/
&ELECTRONS
  diagonalization='david',
  conv_thr=7.349864494991327e-08,
  mixing_beta=0.05d00,
  electron_maxstep=1000,
  startingpot='file',
  startingwfc='atomic',
/
&IONS
  ion_dynamics='ipi',
/
&CELL
  cell_dynamics='ipi',
/
CELL_PARAMETERS alat
    6.579727202290808d0     0.000000000000000d0     0.000000000000000d0
   -0.000775132442404d0     5.961596420607155d0     0.000000000000000d0
    0.000000000000000d0    -0.000000000000000d0    25.155947251439940d0
ATOMIC_SPECIES
Ti1 47.867d00 Ti.UPF
O1 15.999d00 O.UPF
N1 14.007d00 N.UPF
C1 12.011d00 C.UPF
H1 1.008d00 H.UPF
ATOMIC_POSITIONS {crystal}
Ti1      0.000123603383822d0     0.499897385958536d0     0.238512187198856d0
Ti1      0.500142521004230d0     0.250038178055688d0     0.238522014307695d0
O1       0.000095322930372d0     0.000084774873452d0     0.317452257936818d0
O1       0.500112315057126d0     0.000084209992886d0     0.290342007718641d0
O1       0.698270105622955d0     0.250236102495782d0     0.369213011426276d0
O1       0.301995368073695d0     0.249987007385122d0     0.369214717028816d0
Ti1      0.500198167309398d0     0.485761668506182d0     0.364758343030283d0
Ti1      0.000261424674789d0     0.248709163236136d0     0.368424970923767d0
O1       0.502297462538703d0     0.000131979552602d0     0.449425802303300d0
O1       0.001882992193933d0     0.999479849154423d0     0.422099495650131d0
O1       0.201314756096900d0     0.250030646154720d0     0.501310310961761d0
O1       0.808088750921480d0     0.249827452956078d0     0.501956223351567d0
Ti1      0.993613758087160d0     0.505139918608774d0     0.502924568859267d0
Ti1      0.488754737945706d0     0.250818865290395d0     0.495076198082346d0
O1       0.008487624127620d0     0.999389239435124d0     0.583439606879603d0
O1       0.503353152647467d0     0.004030259355627d0     0.551535783869207d0
O1       0.695418685031563d0     0.258316172356418d0     0.640795416322663d0
O1       0.318102226651905d0     0.253594163616782d0     0.635836162785078d0
Ti1      0.506352982771035d0     0.506759653975836d0     0.621959875791868d0
Ti1      0.012763194952699d0     0.235795001503348d0     0.628176076987049d0
O1       0.500093721748991d0     0.000084921243389d0     0.186906639369252d0
O1       0.010071900148146d0     0.003259898394715d0     0.685661779752029d0
O1       0.198268504441574d0     0.250236248865719d0     0.238667392858710d0
O1       0.801993766892314d0     0.249987153755059d0     0.238669098461250d0
Ti1      0.000123603383822d0     0.999897385958536d0     0.238512187198856d0
Ti1      0.500142521004230d0     0.750038178055688d0     0.238522014307695d0
O1       0.000095322930372d0     0.500084774873452d0     0.317452257936818d0
O1       0.500112315057126d0     0.500084209992886d0     0.290342007718641d0
O1       0.698270105622955d0     0.750236102495782d0     0.369213011426276d0
O1       0.301995368073695d0     0.749987007385122d0     0.369214717028816d0
Ti1      0.500001644927041d0     0.985370751416071d0     0.364779031055315d0
Ti1      0.000183276761494d0     0.748948988039575d0     0.368476322807288d0
O1       0.502603142438155d0     0.502023467938370d0     0.449482178377605d0
O1       0.001460782485842d0     0.499964783615161d0     0.422656139091726d0
O1       0.200826070338485d0     0.749700508445054d0     0.501834002009795d0
O1       0.807728210165560d0     0.751505411653924d0     0.502328348899148d0
Ti1      0.993678330444784d0     0.003502662751707d0     0.498668787019638d0
Ti1      0.489219941495508d0     0.751499210063311d0     0.495255831980579d0
O1       0.003135365118322d0     0.493613281142537d0     0.585349045373578d0
O1       0.503919871994850d0     0.500680311202253d0     0.550991500331941d0
O1       0.695209555450088d0     0.757185766792889d0     0.632705406221828d0
O1       0.323736867967160d0     0.753459691988537d0     0.639129953736579d0
Ti1      0.505791367706910d0     0.003845164991807d0     0.623046699550264d0
Ti1      0.995879335169241d0     0.755437530355555d0     0.647532421384913d0
O1       0.500093721748991d0     0.500084921243389d0     0.186906639369252d0
O1       0.198268504441574d0     0.750236248865719d0     0.238667392858710d0
O1       0.801993766892315d0     0.749987153755059d0     0.238669098461250d0
N1       0.056423290577296d0     0.502914863446876d0     0.699758082876671d0
C1       0.205896082806184d0     0.458789462967222d0     0.741103486249607d0
H1       0.229363019494524d0     0.609219798361150d0     0.765592182751083d0
H1       0.156890374298857d0     0.319867172690663d0     0.766580676498710d0
H1       0.349909006814240d0     0.410906092538598d0     0.723464618041599d0
N1       0.870457402209823d0     0.579823511674800d0     0.720763004151961d0
H1       0.886363430962999d0     0.675866734584869d0     0.753946921665836d0
H1       0.765452723689248d0     0.455797315852977d0     0.725535073382962d0
K_POINTS automatic
4 4 1  0 0 0 
