&CONTROL
  calculation='relax',
  prefix='calc',
  pseudo_dir='/storage/coda1/p-amedford6/0/shared/rich_project_chbe-medford/medford-share/data/pseudos_module/espresso/nninc/pbe/van',
  outdir='.',
  tefield=.true.,
  dipfield=.true.,
  tprnfor=.true.,
  disk_io='none',
/
&SYSTEM
  ibrav=0,
  celldm(1)=1.8897261245650618d0,
  nat=52,
  ntyp=5,
  ecutwfc=29.39945797996531d00,
  ecutrho=293.9945797996531d00,
  nbnd=209,
  occupations='smearing',
  smearing='fd',
  degauss=0.007349864494991328d00,
  input_dft='BEEF-vdW',
  edir=3,
  emaxpos=0.9877023035632354d00,
  eopreg=0.025d00,
  eamp=0.0d00,
  nosym=.false.,
  noinv=.false.,
  nosym_evc=.false.,
  no_t_rev=.false.,
/
&ELECTRONS
  diagonalization='david',
  conv_thr=7.349864494991327e-08,
  mixing_beta=0.05d00,
  electron_maxstep=1000,
  startingwfc='atomic',
/
&IONS
  ion_dynamics='ipi',
/
&CELL
  cell_dynamics='ipi',
/
CELL_PARAMETERS alat
    6.579727202290808d0     0.000000000000000d0     0.000000000000000d0
   -0.000775132442404d0     5.961596420607155d0     0.000000000000000d0
    0.000000000000000d0    -0.000000000000000d0    25.155947251439940d0
ATOMIC_SPECIES
O1 15.999d00 O.UPF
Ti1 47.867d00 Ti.UPF
C1 12.011d00 C.UPF
H1 1.008d00 H.UPF
N1 14.007d00 N.UPF
ATOMIC_POSITIONS {crystal}
O1       0.500093721748991d0     0.000084921243389d0     0.186906639369252d0
O1       0.500093721748991d0     0.500084921243389d0     0.186906639369252d0
Ti1      0.000123603383822d0     0.499897385958537d0     0.238512187198856d0
Ti1      0.000123603383822d0     0.999897385958537d0     0.238512187198856d0
Ti1      0.500142521004230d0     0.250038178055688d0     0.238522014307695d0
Ti1      0.500142521004230d0     0.750038178055688d0     0.238522014307695d0
O1       0.198268504441574d0     0.250236248865719d0     0.238667392858710d0
O1       0.198268504441574d0     0.750236248865719d0     0.238667392858710d0
O1       0.801993766892314d0     0.249987153755059d0     0.238669098461250d0
O1       0.801993766892315d0     0.749987153755059d0     0.238669098461250d0
O1       0.500112315057126d0     0.000084209992886d0     0.290342007718641d0
O1       0.500112315057126d0     0.500084209992886d0     0.290342007718641d0
O1       0.000095322930372d0     0.000084774873452d0     0.317452257936818d0
O1       0.000095322930372d0     0.500084774873452d0     0.317452257936818d0
Ti1      0.495447071943293d0     0.008527649499565d0     0.363890424819119d0
Ti1      0.500972674623356d0     0.508005546930675d0     0.364051733830383d0
Ti1      0.998082598294999d0     0.762096917022118d0     0.368141179481177d0
O1       0.698270105622955d0     0.250236102495782d0     0.369213011426276d0
O1       0.698270105622955d0     0.750236102495782d0     0.369213011426276d0
O1       0.301995368073695d0     0.249987007385122d0     0.369214717028816d0
O1       0.301995368073695d0     0.749987007385122d0     0.369214717028816d0
Ti1      0.997778531694420d0     0.271573359295677d0     0.372388544467574d0
O1       0.000876001824620d0     0.500359354968870d0     0.420594195786274d0
O1       0.001352083212484d0     0.999434115657337d0     0.421725566859731d0
O1       0.501534372776561d0     0.497670703516658d0     0.450995197934069d0
O1       0.501937078919568d0     0.997206319376050d0     0.450981991772010d0
Ti1      0.509563353391486d0     0.248262964183530d0     0.496535806122143d0
Ti1      0.007380233638427d0     0.993846274885332d0     0.497659397222334d0
Ti1      0.508900242822408d0     0.748017386003827d0     0.496362331436546d0
O1       0.196959186925914d0     0.245992449061090d0     0.502683211307652d0
O1       0.805042461996362d0     0.246755713632888d0     0.502512098724708d0
O1       0.197210003301011d0     0.746722870816157d0     0.502861312922302d0
O1       0.805170947776903d0     0.746274046326027d0     0.502667966527528d0
Ti1      0.005936663925178d0     0.494040336877593d0     0.509381501369359d0
O1       0.502793961142811d0     0.494625172236158d0     0.553615793618800d0
O1       0.502676480082701d0     0.995776977190787d0     0.553964915197825d0
O1       0.003892671903529d0     0.496425520084584d0     0.584953235569481d0
O1       0.001049202883237d0     0.995242481900140d0     0.584741256818677d0
Ti1      0.502880714886500d0     0.494425518433370d0     0.624943594422603d0
Ti1      0.503830695212117d0     0.994609937408553d0     0.625263347092325d0
Ti1      0.005288139401649d0     0.760206762716091d0     0.635119624180923d0
O1       0.692704814034397d0     0.743605365404686d0     0.639493182691203d0
O1       0.312981198089993d0     0.744245125941503d0     0.639083748289922d0
O1       0.692029847541355d0     0.245613579786315d0     0.640249360967302d0
O1       0.313746750170538d0     0.245094857531659d0     0.639424485773891d0
Ti1      0.002109284278791d0     0.228184282867660d0     0.638862154866291d0
O1       0.004019321838329d0     0.994087274369073d0     0.684763787671224d0
O1       0.002071497580649d0     0.494044201147847d0     0.690625154243817d0
C1       0.969961358816055d0     0.515263216238580d0     0.743691892706692d0
H1       0.039799195750166d0     0.648382856063827d0     0.766453960574999d0
N1       0.847445692334862d0     0.377935359977856d0     0.767844808495845d0
N1       0.737968793119369d0     0.254956927085021d0     0.788497967757218d0
K_POINTS automatic
4 4 1  0 0 0 
