&CONTROL
  calculation='relax',
  prefix='calc',
  pseudo_dir='/storage/coda1/p-amedford6/0/shared/rich_project_chbe-medford/medford-share/data/pseudos_module/espresso/nninc/pbe/van',
  outdir='.',
  tefield=.true.,
  dipfield=.true.,
  tprnfor=.true.,
  disk_io='none',
/
&SYSTEM
  ibrav=0,
  celldm(1)=1.8897261245650618d0,
  nat=55,
  ntyp=5,
  ecutwfc=29.39945797996531d00,
  ecutrho=293.9945797996531d00,
  nbnd=211,
  occupations='smearing',
  smearing='fd',
  degauss=0.007349864494991328d00,
  input_dft='BEEF-vdW',
  edir=3,
  emaxpos=0.9837371464075756d00,
  eopreg=0.025d00,
  eamp=0.0d00,
  nosym=.false.,
  noinv=.false.,
  nosym_evc=.false.,
  no_t_rev=.false.,
/
&ELECTRONS
  diagonalization='david',
  conv_thr=7.349864494991327e-08,
  mixing_beta=0.05d00,
  electron_maxstep=1000,
  startingwfc='atomic',
/
&IONS
  ion_dynamics='ipi',
/
&CELL
  cell_dynamics='ipi',
/
CELL_PARAMETERS alat
    6.579727202290808d0     0.000000000000000d0     0.000000000000000d0
   -0.000775132442404d0     5.961596420607155d0     0.000000000000000d0
    0.000000000000000d0    -0.000000000000000d0    25.155947251439940d0
ATOMIC_SPECIES
Ti1 47.867d00 Ti.UPF
O1 15.999d00 O.UPF
C1 12.011d00 C.UPF
H1 1.008d00 H.UPF
N1 14.007d00 N.UPF
ATOMIC_POSITIONS {crystal}
Ti1      0.000123603383822d0     0.499897385958537d0     0.238512187198856d0
Ti1      0.500142521004230d0     0.250038178055688d0     0.238522014307695d0
O1       0.000095322930372d0     0.000084774873452d0     0.317452257936818d0
O1       0.500112315057126d0     0.000084209992886d0     0.290342007718641d0
O1       0.698270105622955d0     0.250236102495782d0     0.369213011426276d0
O1       0.301995368073695d0     0.249987007385122d0     0.369214717028816d0
Ti1      0.499202232910764d0     0.493870433869641d0     0.363960935156762d0
Ti1      0.998685198026505d0     0.251529078789493d0     0.368526277978109d0
O1       0.502826408903589d0     0.999746651896887d0     0.452308737937685d0
O1       0.001016054974854d0     0.999882031847637d0     0.422026572282106d0
O1       0.198602497724572d0     0.248866428145729d0     0.503465939220122d0
O1       0.806410347822517d0     0.249920863645887d0     0.503617363618150d0
Ti1      0.005503170960332d0     0.497345371693725d0     0.498543627339061d0
Ti1      0.507039463289967d0     0.249877138163578d0     0.497534712856218d0
O1       0.003903429387296d0     0.996172771602870d0     0.584561005878214d0
O1       0.502946384311960d0     0.999398657663036d0     0.556876826756603d0
O1       0.696290444878034d0     0.250347548215344d0     0.643500132990198d0
O1       0.314167950974356d0     0.251102985611480d0     0.644497528116521d0
Ti1      0.504621193143966d0     0.497381399720502d0     0.625822307107685d0
Ti1      0.001586955273331d0     0.223773194285809d0     0.635673769023679d0
O1       0.500093721748991d0     0.000084921243389d0     0.186906639369252d0
O1       0.003947212492893d0     0.995357405908169d0     0.685261272419529d0
O1       0.198268504441574d0     0.250236248865719d0     0.238667392858710d0
O1       0.801993766892314d0     0.249987153755059d0     0.238669098461250d0
Ti1      0.000123603383822d0     0.999897385958537d0     0.238512187198856d0
Ti1      0.500142521004230d0     0.750038178055688d0     0.238522014307695d0
O1       0.000095322930372d0     0.500084774873452d0     0.317452257936818d0
O1       0.500112315057126d0     0.500084209992886d0     0.290342007718641d0
O1       0.698270105622955d0     0.750236102495782d0     0.369213011426276d0
O1       0.301995368073695d0     0.749987007385122d0     0.369214717028816d0
Ti1      0.498318303013719d0     0.994236127563756d0     0.363913684142559d0
Ti1      0.998699510718609d0     0.750442559284675d0     0.368563832743275d0
O1       0.502265660617947d0     0.499678481721570d0     0.451927342405319d0
O1       0.001913477590464d0     0.499542163187500d0     0.422790069211167d0
O1       0.198593085841398d0     0.749332666738368d0     0.503314256998017d0
O1       0.806542493962238d0     0.748714685232673d0     0.503557239069912d0
Ti1      0.005310756848718d0     0.997411058957398d0     0.496653246284140d0
Ti1      0.507033261286953d0     0.749355659549967d0     0.497651312368550d0
O1       0.005303420128063d0     0.496865886849095d0     0.592314895528616d0
O1       0.502270689680392d0     0.499672960352990d0     0.554910937337217d0
O1       0.695935182713760d0     0.743458186352794d0     0.643677810893828d0
O1       0.313655282618577d0     0.742557088295273d0     0.644121552570608d0
Ti1      0.502873180056266d0     0.997069384043997d0     0.628111105054921d0
Ti1      0.001415623568468d0     0.762303772607992d0     0.633532472592442d0
O1       0.500093721748991d0     0.500084921243389d0     0.186906639369252d0
O1       0.198268504441574d0     0.750236248865719d0     0.238667392858710d0
O1       0.801993766892315d0     0.749987153755059d0     0.238669098461250d0
C1       0.901829364084970d0     0.486032105792869d0     0.753407929920625d0
O1       0.022697761363735d0     0.490178134213607d0     0.705184204212522d0
H1       0.744223860082368d0     0.473758356852483d0     0.741124158295752d0
H1       0.166482018896345d0     0.492375444539236d0     0.714208722511592d0
H1       0.942818423793338d0     0.339108529588007d0     0.776911744792601d0
H1       0.926884496249247d0     0.641264541166563d0     0.775280569283745d0
N1       0.450874287475994d0     0.007273782683979d0     0.780567653445899d0
N1       0.413554270969818d0     0.828470978013154d0     0.774403506321656d0
K_POINTS automatic
4 4 1  0 0 0 
