&CONTROL
  calculation='relax',
  prefix='calc',
  pseudo_dir='/storage/coda1/p-amedford6/0/shared/rich_project_chbe-medford/medford-share/data/pseudos_module/espresso/nninc/pbe/van',
  outdir='.',
  tefield=.true.,
  dipfield=.true.,
  tprnfor=.true.,
  disk_io='none',
/
&SYSTEM
  ibrav=0,
  celldm(1)=1.8897261245650618d0,
  nat=52,
  ntyp=4,
  ecutwfc=29.39945797996531d00,
  ecutrho=293.9945797996531d00,
  nbnd=205,
  occupations='smearing',
  smearing='fd',
  degauss=0.007349864494991328d00,
  input_dft='BEEF-vdW',
  edir=3,
  emaxpos=0.9646048266372828d00,
  eopreg=0.025d00,
  eamp=0.0d00,
  nosym=.false.,
  noinv=.false.,
  nosym_evc=.false.,
  no_t_rev=.false.,
/
&ELECTRONS
  diagonalization='david',
  conv_thr=7.349864494991327e-08,
  mixing_beta=0.05d00,
  electron_maxstep=1000,
  startingpot='file',
  startingwfc='atomic',
/
&IONS
  ion_dynamics='ipi',
/
&CELL
  cell_dynamics='ipi',
/
CELL_PARAMETERS alat
    6.579727202290808d0     0.000000000000000d0     0.000000000000000d0
   -0.000775132442404d0     5.961596420607155d0     0.000000000000000d0
    0.000000000000000d0    -0.000000000000000d0    25.155947251439940d0
ATOMIC_SPECIES
Ti1 47.867d00 Ti.UPF
O1 15.999d00 O.UPF
C1 12.011d00 C.UPF
H1 1.008d00 H.UPF
ATOMIC_POSITIONS {crystal}
Ti1      0.000123603383822d0     0.499897385958537d0     0.238512187198856d0
Ti1      0.500142521004230d0     0.250038178055688d0     0.238522014307695d0
O1       0.000095322930372d0     0.000084774873452d0     0.317452257936818d0
O1       0.500112315057126d0     0.000084209992886d0     0.290342007718641d0
O1       0.698270105622955d0     0.250236102495782d0     0.369213011426276d0
O1       0.301995368073695d0     0.249987007385122d0     0.369214717028816d0
Ti1      0.495156128748971d0     0.480646675043247d0     0.366571597024185d0
Ti1      0.993153414915003d0     0.242046038023746d0     0.372084014600041d0
O1       0.496988498211994d0     0.994136656758788d0     0.449990741329019d0
O1       0.998417841091856d0     0.996960281291788d0     0.420780661606243d0
O1       0.190669429488164d0     0.248023168487654d0     0.501951219981571d0
O1       0.802569902082969d0     0.247150539097158d0     0.502033914904602d0
Ti1      0.996475065379030d0     0.477478153436066d0     0.509192897876144d0
Ti1      0.495349239289633d0     0.216562493328304d0     0.504137914136883d0
O1       0.997693763803709d0     0.998142730280464d0     0.581357914188181d0
O1       0.495955119199622d0     0.005034040223692d0     0.553224832962867d0
O1       0.685363316708251d0     0.257173593026786d0     0.640925596320499d0
O1       0.301633489847747d0     0.259201081081893d0     0.641147269444608d0
Ti1      0.498053396929629d0     0.504160990368252d0     0.623337816890007d0
Ti1      0.005748377206458d0     0.253363651595951d0     0.641159688986248d0
O1       0.500093721748991d0     0.000084921243389d0     0.186906639369252d0
O1       0.993638314097330d0     0.992818680084985d0     0.682772947871401d0
O1       0.198268504441574d0     0.250236248865719d0     0.238667392858710d0
O1       0.801993766892314d0     0.249987153755059d0     0.238669098461250d0
Ti1      0.000123603383822d0     0.999897385958537d0     0.238512187198856d0
Ti1      0.500142521004230d0     0.750038178055688d0     0.238522014307695d0
O1       0.000095322930372d0     0.500084774873452d0     0.317452257936818d0
O1       0.500112315057126d0     0.500084209992886d0     0.290342007718641d0
O1       0.698270105622955d0     0.750236102495782d0     0.369213011426276d0
O1       0.301995368073695d0     0.749987007385122d0     0.369214717028816d0
Ti1      0.495050625801278d0     0.981227403220674d0     0.364980726798066d0
Ti1      0.993283790575345d0     0.736381159722432d0     0.371287589213480d0
O1       0.497476701022826d0     0.503855455412023d0     0.448832006814515d0
O1       0.998415075306004d0     0.496951741058698d0     0.419274517337183d0
O1       0.190812869204730d0     0.745372456445864d0     0.501991511964220d0
O1       0.801827531693237d0     0.745612743328963d0     0.502124852951341d0
Ti1      0.994770737580957d0     0.978470014206599d0     0.500783584209527d0
Ti1      0.494690801658670d0     0.736335328694239d0     0.494253794594064d0
O1       0.996747280531902d0     0.492404396972737d0     0.584820825643994d0
O1       0.495563576542061d0     0.497462787611997d0     0.552620888206416d0
O1       0.690018993269814d0     0.743347930016395d0     0.637465016444311d0
O1       0.305019861759347d0     0.745508585962697d0     0.639308433018139d0
Ti1      0.501391442723508d0     0.001361357027524d0     0.649749429128705d0
Ti1      0.998961839282535d0     0.775650649952627d0     0.631664354415681d0
O1       0.500093721748991d0     0.500084921243389d0     0.186906639369252d0
O1       0.198268504441574d0     0.750236248865719d0     0.238667392858710d0
O1       0.801993766892315d0     0.749987153755059d0     0.238669098461250d0
C1       0.993513682317873d0     0.490063550580499d0     0.704934575409845d0
H1       0.127621256201285d0     0.522736696533165d0     0.729268425341896d0
H1       0.854800725238497d0     0.521569961644008d0     0.727514530063611d0
O1       0.508614062708643d0     0.992382876426917d0     0.721928897518481d0
H1       0.620819938225588d0     0.051485644481733d0     0.742303013905313d0
K_POINTS automatic
4 4 1  0 0 0 
