&CONTROL
  calculation='relax',
  prefix='calc',
  pseudo_dir='/storage/coda1/p-amedford6/0/shared/rich_project_chbe-medford/medford-share/data/pseudos_module/espresso/nninc/pbe/van',
  outdir='.',
  tefield=.true.,
  dipfield=.true.,
  tprnfor=.true.,
  disk_io='none',
/
&SYSTEM
  ibrav=0,
  celldm(1)=1.8897261245650618d0,
  nat=55,
  ntyp=5,
  ecutwfc=29.39945797996531d00,
  ecutrho=293.9945797996531d00,
  nbnd=211,
  occupations='smearing',
  smearing='fd',
  degauss=0.007349864494991328d00,
  input_dft='BEEF-vdW',
  edir=3,
  emaxpos=0.9873937349269455d00,
  eopreg=0.025d00,
  eamp=0.0d00,
  nosym=.false.,
  noinv=.false.,
  nosym_evc=.false.,
  no_t_rev=.false.,
/
&ELECTRONS
  diagonalization='david',
  conv_thr=7.349864494991327e-08,
  mixing_beta=0.05d00,
  electron_maxstep=1000,
  startingwfc='atomic',
/
&IONS
  ion_dynamics='ipi',
/
&CELL
  cell_dynamics='ipi',
/
CELL_PARAMETERS alat
    6.579727202290808d0     0.000000000000000d0     0.000000000000000d0
   -0.000775132442404d0     5.961596420607155d0     0.000000000000000d0
    0.000000000000000d0    -0.000000000000000d0    25.155947251439940d0
ATOMIC_SPECIES
Ti1 47.867d00 Ti.UPF
O1 15.999d00 O.UPF
C1 12.011d00 C.UPF
H1 1.008d00 H.UPF
N1 14.007d00 N.UPF
ATOMIC_POSITIONS {crystal}
Ti1      0.000123603383822d0     0.499897385958537d0     0.238512187198856d0
Ti1      0.500142521004230d0     0.250038178055688d0     0.238522014307695d0
O1       0.000095322930372d0     0.000084774873452d0     0.317452257936818d0
O1       0.500112315057126d0     0.000084209992886d0     0.290342007718641d0
O1       0.698270105622955d0     0.250236102495782d0     0.369213011426276d0
O1       0.301995368073695d0     0.249987007385122d0     0.369214717028816d0
Ti1      0.498372183799564d0     0.498179132818198d0     0.363940920533196d0
Ti1      0.999718070738240d0     0.248587941682774d0     0.368264910670828d0
O1       0.502495970747026d0     0.995614298276737d0     0.452326228824825d0
O1       0.000223618309874d0     0.998529419571660d0     0.421949604873472d0
O1       0.198146672101182d0     0.244909285967994d0     0.503187994518910d0
O1       0.806371106771511d0     0.244851463782877d0     0.503428185597006d0
Ti1      0.001451366669853d0     0.494220078001754d0     0.498370143220874d0
Ti1      0.499301452525527d0     0.245996031947099d0     0.497543797119673d0
O1       0.002613643330998d0     0.992270791153856d0     0.584716247208291d0
O1       0.503655406890765d0     0.994391658555928d0     0.556833913233452d0
O1       0.694430140259249d0     0.248657285791564d0     0.645015339299887d0
O1       0.311574414676071d0     0.245366748535079d0     0.643214242201456d0
Ti1      0.502158960187407d0     0.494272214036704d0     0.626141445073264d0
Ti1      0.010156697856938d0     0.231115073778005d0     0.631764473614623d0
O1       0.500093721748991d0     0.000084921243389d0     0.186906639369252d0
O1       0.004842037550528d0     0.992896829002637d0     0.685508748678110d0
O1       0.198268504441574d0     0.250236248865719d0     0.238667392858710d0
O1       0.801993766892314d0     0.249987153755059d0     0.238669098461250d0
Ti1      0.000123603383822d0     0.999897385958537d0     0.238512187198856d0
Ti1      0.500142521004230d0     0.750038178055688d0     0.238522014307695d0
O1       0.000095322930372d0     0.500084774873452d0     0.317452257936818d0
O1       0.500112315057126d0     0.500084209992886d0     0.290342007718641d0
O1       0.698270105622955d0     0.750236102495782d0     0.369213011426276d0
O1       0.301995368073695d0     0.749987007385122d0     0.369214717028816d0
Ti1      0.501987123494333d0     0.998205246677907d0     0.363881350559222d0
Ti1      0.000386400449068d0     0.746965359122954d0     0.368590420447701d0
O1       0.502124564095283d0     0.495996721444070d0     0.451994300081661d0
O1       0.999831028508198d0     0.498713191665381d0     0.422590570912014d0
O1       0.198539579931444d0     0.744728875310660d0     0.503235478024687d0
O1       0.806550711506954d0     0.744337461359599d0     0.503613972149080d0
Ti1      0.998582795403740d0     0.993518961362502d0     0.496578263082308d0
Ti1      0.499514758370186d0     0.745421728315060d0     0.497691102109789d0
O1       0.003850125722979d0     0.491439109157742d0     0.591889857525406d0
O1       0.502188379213628d0     0.493729851329115d0     0.555171852630400d0
O1       0.694627880139666d0     0.740624162622699d0     0.643221580744470d0
O1       0.311892883390234d0     0.739880298550743d0     0.644126539477301d0
Ti1      0.505618061867744d0     0.992949223405506d0     0.628019036669516d0
Ti1      0.002428642693007d0     0.769232353965998d0     0.637238693584782d0
O1       0.500093721748991d0     0.500084921243389d0     0.186906639369252d0
O1       0.198268504441574d0     0.750236248865719d0     0.238667392858710d0
O1       0.801993766892315d0     0.749987153755059d0     0.238669098461250d0
C1       0.115637837880525d0     0.475745184409728d0     0.752327951259916d0
O1       0.983347546849035d0     0.482670327698075d0     0.705839771482086d0
H1       0.194206691520105d0     0.635804643046808d0     0.753755522216513d0
H1       0.850271724208488d0     0.422228601513810d0     0.714502310880693d0
H1       0.022287241778050d0     0.453542580366207d0     0.787880830484639d0
H1       0.222971373237107d0     0.338106541436079d0     0.748003203791888d0
N1       0.622427824241535d0     0.802117874762817d0     0.776297412552579d0
N1       0.637152623514104d0     0.986497079230395d0     0.774569474941477d0
K_POINTS automatic
4 4 1  0 0 0 
