&CONTROL
  calculation='relax',
  prefix='calc',
  pseudo_dir='/storage/coda1/p-amedford6/0/shared/rich_project_chbe-medford/medford-share/data/pseudos_module/espresso/nninc/pbe/van',
  outdir='.',
  tefield=.true.,
  dipfield=.true.,
  tprnfor=.true.,
  disk_io='none',
/
&SYSTEM
  ibrav=0,
  celldm(1)=1.8897261245650618d0,
  nat=55,
  ntyp=5,
  ecutwfc=29.39945797996531d00,
  ecutrho=293.9945797996531d00,
  nbnd=211,
  occupations='smearing',
  smearing='fd',
  degauss=0.007349864494991328d00,
  input_dft='BEEF-vdW',
  edir=3,
  emaxpos=0.9825451905718774d00,
  eopreg=0.025d00,
  eamp=0.0d00,
  nosym=.false.,
  noinv=.false.,
  nosym_evc=.false.,
  no_t_rev=.false.,
/
&ELECTRONS
  diagonalization='david',
  conv_thr=7.349864494991327e-08,
  mixing_beta=0.05d00,
  electron_maxstep=1000,
  startingwfc='atomic',
/
&IONS
  ion_dynamics='ipi',
/
&CELL
  cell_dynamics='ipi',
/
CELL_PARAMETERS alat
    6.579727202290808d0     0.000000000000000d0     0.000000000000000d0
   -0.000775132442404d0     5.961596420607155d0     0.000000000000000d0
    0.000000000000000d0    -0.000000000000000d0    25.155947251439940d0
ATOMIC_SPECIES
Ti1 47.867d00 Ti.UPF
O1 15.999d00 O.UPF
C1 12.011d00 C.UPF
H1 1.008d00 H.UPF
N1 14.007d00 N.UPF
ATOMIC_POSITIONS {crystal}
Ti1      0.000123603383822d0     0.499897385958537d0     0.238512187198856d0
Ti1      0.500142521004230d0     0.250038178055688d0     0.238522014307695d0
O1       0.000095322930372d0     0.000084774873452d0     0.317452257936818d0
O1       0.500112315057126d0     0.000084209992886d0     0.290342007718641d0
O1       0.698270105622955d0     0.250236102495782d0     0.369213011426276d0
O1       0.301995368073695d0     0.249987007385122d0     0.369214717028816d0
Ti1      0.496446812074442d0     0.497307612585417d0     0.363960673689000d0
Ti1      0.996298613603259d0     0.247379965523090d0     0.368315588830055d0
O1       0.505888940685292d0     0.993970234066151d0     0.451555088426383d0
O1       0.000036354557467d0     0.998125969720758d0     0.421467821125231d0
O1       0.202135884096134d0     0.244572817203727d0     0.501748647866472d0
O1       0.809766423596154d0     0.244224965999015d0     0.503148478195900d0
Ti1      0.005765271078338d0     0.494392404815383d0     0.498567125012233d0
Ti1      0.505458260310253d0     0.243786164291197d0     0.496879322045408d0
O1       0.010346659316295d0     0.995203995562264d0     0.583157949305549d0
O1       0.504612761409850d0     0.994132757413647d0     0.555974042209086d0
O1       0.702433418353458d0     0.247173454062264d0     0.642017567121501d0
O1       0.319132828108380d0     0.248451635429314d0     0.643496220401928d0
Ti1      0.510752259451560d0     0.493858638551586d0     0.624789342166225d0
Ti1      0.005215475138128d0     0.233019392382827d0     0.631198762367677d0
O1       0.500093721748991d0     0.000084921243389d0     0.186906639369252d0
O1       0.007912075929279d0     0.993457298918734d0     0.683772558135890d0
O1       0.198268504441574d0     0.250236248865719d0     0.238667392858710d0
O1       0.801993766892314d0     0.249987153755059d0     0.238669098461250d0
Ti1      0.000123603383822d0     0.999897385958537d0     0.238512187198856d0
Ti1      0.500142521004230d0     0.750038178055688d0     0.238522014307695d0
O1       0.000095322930372d0     0.500084774873452d0     0.317452257936818d0
O1       0.500112315057126d0     0.500084209992886d0     0.290342007718641d0
O1       0.698270105622955d0     0.750236102495782d0     0.369213011426276d0
O1       0.301995368073695d0     0.749987007385122d0     0.369214717028816d0
Ti1      0.498228140027578d0     0.997391726296591d0     0.363800991570094d0
Ti1      0.996552821807767d0     0.744997552067196d0     0.368621294054672d0
O1       0.505998847686158d0     0.494701169562514d0     0.451358717966148d0
O1       0.000741195204769d0     0.498461996564494d0     0.422386535416520d0
O1       0.201745120859449d0     0.744434171774214d0     0.502120634729438d0
O1       0.809152405111116d0     0.744276594593687d0     0.503366453371387d0
Ti1      0.005467060658862d0     0.994170088847352d0     0.496049863896553d0
Ti1      0.506384039202790d0     0.743411087036791d0     0.496866226409673d0
O1       0.010578613724550d0     0.491705182091084d0     0.589845767148395d0
O1       0.505005719402767d0     0.493278513339283d0     0.553982613444775d0
O1       0.701811871050360d0     0.739774449539328d0     0.642018316696647d0
O1       0.318802164735797d0     0.738893227176398d0     0.643213370520493d0
Ti1      0.506570965974961d0     0.993446521739116d0     0.627128261268808d0
Ti1      0.005975808765249d0     0.771128346225983d0     0.635057527728436d0
O1       0.500093721748991d0     0.500084921243389d0     0.186906639369252d0
O1       0.198268504441574d0     0.750236248865719d0     0.238667392858710d0
O1       0.801993766892315d0     0.749987153755059d0     0.238669098461250d0
C1       0.939322429821562d0     0.471013074734220d0     0.752676774826883d0
O1       0.037604829160924d0     0.490137495457680d0     0.701286581319074d0
H1       0.785415052144459d0     0.412930010994615d0     0.745534606707254d0
H1       0.184118554832723d0     0.488338976205585d0     0.705597400032213d0
H1       0.021290148889246d0     0.347668366907810d0     0.776496367087181d0
H1       0.938880705189419d0     0.635528635169217d0     0.771622399322632d0
N1       0.451517845574953d0     0.986217328001556d0     0.778183741774502d0
N1       0.388093884220707d0     0.816515687358581d0     0.772175478848100d0
K_POINTS automatic
4 4 1  0 0 0 
