&CONTROL
  calculation='relax',
  prefix='calc',
  pseudo_dir='/storage/coda1/p-amedford6/0/shared/rich_project_chbe-medford/medford-share/data/pseudos_module/espresso/nninc/pbe/van',
  outdir='.',
  tefield=.true.,
  dipfield=.true.,
  tprnfor=.true.,
  disk_io='none',
/
&SYSTEM
  ibrav=0,
  celldm(1)=1.8897261245650618d0,
  nat=54,
  ntyp=5,
  ecutwfc=29.39945797996531d00,
  ecutrho=293.9945797996531d00,
  nbnd=208,
  occupations='smearing',
  smearing='fd',
  degauss=0.007349864494991328d00,
  input_dft='BEEF-vdW',
  edir=3,
  emaxpos=0.979114174678237d00,
  eopreg=0.025d00,
  eamp=0.0d00,
  nosym=.false.,
  noinv=.false.,
  nosym_evc=.false.,
  no_t_rev=.false.,
/
&ELECTRONS
  diagonalization='david',
  conv_thr=7.349864494991327e-08,
  mixing_beta=0.05d00,
  electron_maxstep=1000,
  startingpot='file',
  startingwfc='atomic',
/
&IONS
  ion_dynamics='ipi',
/
&CELL
  cell_dynamics='ipi',
/
CELL_PARAMETERS alat
    6.579727202290808d0     0.000000000000000d0     0.000000000000000d0
   -0.000775132442404d0     5.961596420607155d0     0.000000000000000d0
    0.000000000000000d0    -0.000000000000000d0    25.155947251439940d0
ATOMIC_SPECIES
Ti1 47.867d00 Ti.UPF
O1 15.999d00 O.UPF
N1 14.007d00 N.UPF
C1 12.011d00 C.UPF
H1 1.008d00 H.UPF
ATOMIC_POSITIONS {crystal}
Ti1      0.000123603383822d0     0.499897385958536d0     0.238512187198856d0
Ti1      0.500142521004230d0     0.250038178055688d0     0.238522014307695d0
O1       0.000095322930372d0     0.000084774873452d0     0.317452257936818d0
O1       0.500112315057126d0     0.000084209992886d0     0.290342007718641d0
O1       0.698270105622955d0     0.250236102495782d0     0.369213011426276d0
O1       0.301995368073695d0     0.249987007385122d0     0.369214717028816d0
Ti1      0.500198167309398d0     0.485761668506182d0     0.364758343030283d0
Ti1      0.000261424674789d0     0.248709163236136d0     0.368424970923767d0
O1       0.498396191783892d0     0.001841213258689d0     0.452412776626655d0
O1       0.001882992193933d0     0.999479849154423d0     0.422099495650131d0
O1       0.194042750395851d0     0.250486711310127d0     0.504986807220501d0
O1       0.803371334177466d0     0.250551622963021d0     0.504427899122043d0
Ti1      0.998655851522652d0     0.498793975619534d0     0.497064993687590d0
Ti1      0.497796978205799d0     0.250493149240420d0     0.498462837623926d0
O1       0.993665126312634d0     0.984950462517364d0     0.584104346094380d0
O1       0.499189034437011d0     0.997426427778158d0     0.556493215243475d0
O1       0.687268496160474d0     0.255336650864397d0     0.641659627313961d0
O1       0.304423184399628d0     0.254029000016352d0     0.639681384321353d0
Ti1      0.495644285026196d0     0.503767736841996d0     0.627014033037297d0
Ti1      0.993190869647552d0     0.221024695073157d0     0.629501827287055d0
O1       0.500093721748991d0     0.000084921243389d0     0.186906639369252d0
O1       0.000020557877974d0     0.030484546081003d0     0.685598657411397d0
O1       0.198268504441574d0     0.250236248865719d0     0.238667392858710d0
O1       0.801993766892314d0     0.249987153755059d0     0.238669098461250d0
Ti1      0.000123603383822d0     0.999897385958536d0     0.238512187198856d0
Ti1      0.500142521004230d0     0.750038178055688d0     0.238522014307695d0
O1       0.000095322930372d0     0.500084774873452d0     0.317452257936818d0
O1       0.500112315057126d0     0.500084209992886d0     0.290342007718641d0
O1       0.698270105622955d0     0.750236102495782d0     0.369213011426276d0
O1       0.301995368073695d0     0.749987007385122d0     0.369214717028816d0
Ti1      0.500001644927041d0     0.985370751416071d0     0.364779031055315d0
Ti1      0.000183276761494d0     0.748948988039575d0     0.368476322807288d0
O1       0.498326385097648d0     0.498590398479144d0     0.452233817042164d0
O1       0.001460782485842d0     0.499964783615161d0     0.422656139091726d0
O1       0.194409665951364d0     0.748590413060186d0     0.503274228372302d0
O1       0.802846877760751d0     0.748337127944181d0     0.502511023238165d0
Ti1      0.997896192698072d0     0.996624723001188d0     0.496940627193157d0
Ti1      0.497805282721147d0     0.749999902871622d0     0.498037138653776d0
O1       0.996076151249208d0     0.510650168721169d0     0.595438805410145d0
O1       0.499390369027980d0     0.504924250381185d0     0.555702275357011d0
O1       0.688205478826108d0     0.751574638353207d0     0.645759264471102d0
O1       0.304367559932463d0     0.751960294295214d0     0.644834862266039d0
Ti1      0.495449440724847d0     0.003300114642068d0     0.627988436809283d0
Ti1      0.994921048954343d0     0.760926405961586d0     0.638633296578284d0
O1       0.500093721748991d0     0.500084921243389d0     0.186906639369252d0
O1       0.198268504441574d0     0.750236248865719d0     0.238667392858710d0
O1       0.801993766892315d0     0.749987153755059d0     0.238669098461250d0
N1       0.172819731904614d0     0.451168938473128d0     0.745417378144466d0
N1       0.987976957750006d0     0.566652112074015d0     0.723682382260822d0
C1       0.333021166899538d0     0.538831910533968d0     0.766223316376778d0
H1       0.310551646671051d0     0.720943719648113d0     0.771321709987221d0
H1       0.163958087360590d0     0.285957618009513d0     0.735039769121605d0
H1       0.973611331470401d0     0.713151798146593d0     0.744360371556080d0
H1       0.864443162156760d0     0.469467541090278d0     0.732693419610562d0
K_POINTS automatic
4 4 1  0 0 0 
