&CONTROL
  calculation='relax',
  prefix='calc',
  pseudo_dir='/storage/coda1/p-amedford6/0/shared/rich_project_chbe-medford/medford-share/data/pseudos_module/espresso/nninc/pbe/van',
  outdir='.',
  tefield=.true.,
  dipfield=.true.,
  tprnfor=.true.,
  disk_io='none',
/
&SYSTEM
  ibrav=0,
  celldm(1)=1.8897261245650618d0,
  nat=55,
  ntyp=5,
  ecutwfc=29.39945797996531d00,
  ecutrho=293.9945797996531d00,
  nbnd=211,
  occupations='smearing',
  smearing='fd',
  degauss=0.007349864494991328d00,
  input_dft='BEEF-vdW',
  edir=3,
  emaxpos=0.9872823727364775d00,
  eopreg=0.025d00,
  eamp=0.0d00,
  nosym=.false.,
  noinv=.false.,
  nosym_evc=.false.,
  no_t_rev=.false.,
/
&ELECTRONS
  diagonalization='david',
  conv_thr=7.349864494991327e-08,
  mixing_beta=0.05d00,
  electron_maxstep=1000,
  startingwfc='atomic',
/
&IONS
  ion_dynamics='ipi',
/
&CELL
  cell_dynamics='ipi',
/
CELL_PARAMETERS alat
    6.579727202290808d0     0.000000000000000d0     0.000000000000000d0
   -0.000775132442404d0     5.961596420607155d0     0.000000000000000d0
    0.000000000000000d0    -0.000000000000000d0    25.155947251439940d0
ATOMIC_SPECIES
Ti1 47.867d00 Ti.UPF
O1 15.999d00 O.UPF
C1 12.011d00 C.UPF
H1 1.008d00 H.UPF
N1 14.007d00 N.UPF
ATOMIC_POSITIONS {crystal}
Ti1      0.000123603383822d0     0.499897385958537d0     0.238512187198856d0
Ti1      0.500142521004230d0     0.250038178055688d0     0.238522014307695d0
O1       0.000095322930372d0     0.000084774873452d0     0.317452257936818d0
O1       0.500112315057126d0     0.000084209992886d0     0.290342007718641d0
O1       0.698270105622955d0     0.250236102495782d0     0.369213011426276d0
O1       0.301995368073695d0     0.249987007385122d0     0.369214717028816d0
Ti1      0.504903949589322d0     0.497016011671171d0     0.363932297725574d0
Ti1      0.006481538872862d0     0.250452015245070d0     0.368353475412343d0
O1       0.498132834221052d0     0.003542436339429d0     0.451855025612184d0
O1       0.999536499339939d0     0.001297709822062d0     0.421736404117163d0
O1       0.194630795141782d0     0.253642735663375d0     0.503029897298053d0
O1       0.802575550255917d0     0.253550258000592d0     0.503052663591071d0
Ti1      0.995105877322459d0     0.505365131439637d0     0.498624817255464d0
Ti1      0.493710162914749d0     0.254551624911806d0     0.497196160447696d0
O1       0.000678724398423d0     0.002912143735803d0     0.583864409449396d0
O1       0.497731478366051d0     0.004013960220098d0     0.556402836237995d0
O1       0.693432936432094d0     0.257266474245369d0     0.642963985161571d0
O1       0.310688657618290d0     0.259091140186746d0     0.643766742571194d0
Ti1      0.503219008191701d0     0.504394514780998d0     0.625176482442952d0
Ti1      0.999153507755158d0     0.227295653034502d0     0.635940450912266d0
O1       0.500093721748991d0     0.000084921243389d0     0.186906639369252d0
O1       0.001213431739909d0     0.003395306322292d0     0.684492333614163d0
O1       0.198268504441574d0     0.250236248865719d0     0.238667392858710d0
O1       0.801993766892314d0     0.249987153755059d0     0.238669098461250d0
Ti1      0.000123603383822d0     0.999897385958537d0     0.238512187198856d0
Ti1      0.500142521004230d0     0.750038178055688d0     0.238522014307695d0
O1       0.000095322930372d0     0.500084774873452d0     0.317452257936818d0
O1       0.500112315057126d0     0.500084209992886d0     0.290342007718641d0
O1       0.698270105622955d0     0.750236102495782d0     0.369213011426276d0
O1       0.301995368073695d0     0.749987007385122d0     0.369214717028816d0
Ti1      0.505030340786799d0     0.997020863711995d0     0.363845467995230d0
Ti1      0.006374161561119d0     0.748247958767881d0     0.368535162495487d0
O1       0.498232578894723d0     0.503310473727202d0     0.451556742240449d0
O1       0.999434781709215d0     0.501500815595178d0     0.422543993532977d0
O1       0.194670072501430d0     0.753187872927633d0     0.502972558948467d0
O1       0.802596440213234d0     0.753691260330164d0     0.503025370705959d0
Ti1      0.995564301342109d0     0.005858991839599d0     0.496356236620031d0
Ti1      0.493514681917674d0     0.754098432644331d0     0.497133879017976d0
O1       0.000517288341876d0     0.504827641485746d0     0.590735666636534d0
O1       0.499176014824971d0     0.503618593796170d0     0.554294629515160d0
O1       0.693468807800251d0     0.751499851559417d0     0.642474015997888d0
O1       0.310384063700030d0     0.748930299803283d0     0.643441619097665d0
Ti1      0.498106576682850d0     0.004626212956503d0     0.627591516503271d0
Ti1      0.996696870408897d0     0.765448441298257d0     0.631563410948482d0
O1       0.500093721748991d0     0.500084921243389d0     0.186906639369252d0
O1       0.198268504441574d0     0.750236248865719d0     0.238667392858710d0
O1       0.801993766892315d0     0.749987153755059d0     0.238669098461250d0
C1       0.902183619198790d0     0.518117751188104d0     0.752136492842690d0
O1       0.020899343823462d0     0.507544532025062d0     0.703534576176746d0
H1       0.746044467204785d0     0.483483060903484d0     0.740946108284598d0
H1       0.164993152812204d0     0.522134759219800d0     0.711569175433185d0
H1       0.956576713111644d0     0.390236371249407d0     0.779608068761929d0
H1       0.914227452592760d0     0.686069025223583d0     0.768944869836820d0
N1       0.364533438911894d0     0.040991588310257d0     0.787658106103702d0
N1       0.420842670731522d0     0.880925755915664d0     0.771141607630046d0
K_POINTS automatic
4 4 1  0 0 0 
