&CONTROL
  calculation='relax',
  prefix='calc',
  pseudo_dir='/storage/coda1/p-amedford6/0/shared/rich_project_chbe-medford/medford-share/data/pseudos_module/espresso/nninc/pbe/van',
  outdir='.',
  tefield=.true.,
  dipfield=.true.,
  tprnfor=.true.,
  disk_io='none',
/
&SYSTEM
  ibrav=0,
  celldm(1)=1.8897261245650618d0,
  nat=53,
  ntyp=5,
  ecutwfc=29.39945797996531d00,
  ecutrho=293.9945797996531d00,
  nbnd=207,
  occupations='smearing',
  smearing='fd',
  degauss=0.007349864494991328d00,
  input_dft='BEEF-vdW',
  edir=3,
  emaxpos=0.0029254881047409143d00,
  eopreg=0.025d00,
  eamp=0.0d00,
  nosym=.false.,
  noinv=.false.,
  nosym_evc=.false.,
  no_t_rev=.false.,
/
&ELECTRONS
  diagonalization='david',
  conv_thr=7.349864494991327e-08,
  mixing_beta=0.05d00,
  electron_maxstep=1000,
  startingwfc='atomic',
/
&IONS
  ion_dynamics='ipi',
/
&CELL
  cell_dynamics='ipi',
/
CELL_PARAMETERS alat
    6.579727202290808d0     0.000000000000000d0     0.000000000000000d0
   -0.000775132442404d0     5.961596420607155d0     0.000000000000000d0
    0.000000000000000d0    -0.000000000000000d0    25.155947251439940d0
ATOMIC_SPECIES
Ti1 47.867d00 Ti.UPF
O1 15.999d00 O.UPF
N1 14.007d00 N.UPF
C1 12.011d00 C.UPF
H1 1.008d00 H.UPF
ATOMIC_POSITIONS {crystal}
Ti1      0.000123603383822d0     0.499897385958536d0     0.238512187198856d0
Ti1      0.500142521004230d0     0.250038178055688d0     0.238522014307695d0
O1       0.000095322930372d0     0.000084774873452d0     0.317452257936818d0
O1       0.500112315057126d0     0.000084209992886d0     0.290342007718641d0
O1       0.698270105622955d0     0.250236102495782d0     0.369213011426276d0
O1       0.301995368073695d0     0.249987007385122d0     0.369214717028816d0
Ti1      0.500198167309398d0     0.485761668506182d0     0.364758343030283d0
Ti1      0.000261424674789d0     0.248709163236136d0     0.368424970923767d0
O1       0.502123247150013d0     0.000691434200814d0     0.450418462913827d0
O1       0.001882992193933d0     0.999479849154423d0     0.422099495650131d0
O1       0.196251810517188d0     0.250636600185512d0     0.501886757591076d0
O1       0.802383279396599d0     0.248759837283562d0     0.502074910612830d0
Ti1      0.011482849259511d0     0.505046578197580d0     0.500749828075602d0
Ti1      0.515559847865169d0     0.249885790331369d0     0.496181502792076d0
O1       0.003109487221062d0     0.001336179782842d0     0.583463367518053d0
O1       0.497533514756010d0     0.999845138117952d0     0.552861561695996d0
O1       0.685020842623861d0     0.255245732409072d0     0.637346826097080d0
O1       0.311025243374854d0     0.257042346454593d0     0.638330171481685d0
Ti1      0.500465284291749d0     0.504627384043208d0     0.624312312532957d0
Ti1      0.001789911583344d0     0.266345790931571d0     0.627684873021698d0
O1       0.500093721748991d0     0.000084921243389d0     0.186906639369252d0
O1       0.995858952800705d0     0.010829935685460d0     0.686978886790636d0
O1       0.198268504441574d0     0.250236248865719d0     0.238667392858710d0
O1       0.801993766892314d0     0.249987153755059d0     0.238669098461250d0
Ti1      0.000123603383822d0     0.999897385958536d0     0.238512187198856d0
Ti1      0.500142521004230d0     0.750038178055688d0     0.238522014307695d0
O1       0.000095322930372d0     0.500084774873452d0     0.317452257936818d0
O1       0.500112315057126d0     0.500084209992886d0     0.290342007718641d0
O1       0.698270105622955d0     0.750236102495782d0     0.369213011426276d0
O1       0.301995368073695d0     0.749987007385122d0     0.369214717028816d0
Ti1      0.500001644927041d0     0.985370751416071d0     0.364779031055315d0
Ti1      0.000183276761494d0     0.748948988039575d0     0.368476322807288d0
O1       0.501846143942657d0     0.499782358849764d0     0.450440481828961d0
O1       0.001460782485842d0     0.499964783615161d0     0.422656139091726d0
O1       0.196204785232698d0     0.751249460574158d0     0.501512707552469d0
O1       0.803371148745914d0     0.751072161113631d0     0.501726900035259d0
Ti1      0.010643446921853d0     0.003066453535062d0     0.499683709443659d0
Ti1      0.515940369178971d0     0.749812157993779d0     0.496419738923348d0
O1       0.999818671745452d0     0.501712035585233d0     0.582175022575407d0
O1       0.499039861572243d0     0.502830668127190d0     0.552697734142181d0
O1       0.686333326635161d0     0.756216668904769d0     0.639588725343724d0
O1       0.311178186635576d0     0.755400830631207d0     0.641158597969614d0
Ti1      0.499161056324574d0     0.004863232132149d0     0.624563937996331d0
Ti1      0.001275737698233d0     0.786785248961801d0     0.642698905923412d0
O1       0.500093721748991d0     0.500084921243389d0     0.186906639369252d0
O1       0.198268504441574d0     0.750236248865719d0     0.238667392858710d0
O1       0.801993766892315d0     0.749987153755059d0     0.238669098461250d0
N1       0.003370629469245d0     0.436570236555345d0     0.738259267958091d0
N1       0.996383845664730d0     0.493047440260049d0     0.688513190653147d0
C1       0.030892408871240d0     0.564530568560433d0     0.780527412042818d0
H1       0.028854273485088d0     0.484219741546822d0     0.818944336840229d0
H1       0.059808050728071d0     0.742242061967263d0     0.774198077641129d0
H1       0.986711733152918d0     0.264265824893895d0     0.743904013348918d0
K_POINTS automatic
4 4 1  0 0 0 
