&CONTROL
  calculation='relax',
  prefix='calc',
  pseudo_dir='/storage/coda1/p-amedford6/0/shared/rich_project_chbe-medford/medford-share/data/pseudos_module/espresso/nninc/pbe/van',
  outdir='.',
  tefield=.true.,
  dipfield=.true.,
  tprnfor=.true.,
  disk_io='none',
/
&SYSTEM
  ibrav=0,
  celldm(1)=1.8897261245650618d0,
  nat=54,
  ntyp=5,
  ecutwfc=29.39945797996531d00,
  ecutrho=293.9945797996531d00,
  nbnd=208,
  occupations='smearing',
  smearing='fd',
  degauss=0.007349864494991328d00,
  input_dft='BEEF-vdW',
  edir=3,
  emaxpos=0.9943351347736796d00,
  eopreg=0.025d00,
  eamp=0.0d00,
  nosym=.false.,
  noinv=.false.,
  nosym_evc=.false.,
  no_t_rev=.false.,
/
&ELECTRONS
  diagonalization='david',
  conv_thr=7.349864494991327e-08,
  mixing_beta=0.05d00,
  electron_maxstep=1000,
  startingwfc='atomic',
/
&IONS
  ion_dynamics='ipi',
/
&CELL
  cell_dynamics='ipi',
/
CELL_PARAMETERS alat
    6.579727202290808d0     0.000000000000000d0     0.000000000000000d0
   -0.000775132442404d0     5.961596420607155d0     0.000000000000000d0
    0.000000000000000d0    -0.000000000000000d0    25.155947251439940d0
ATOMIC_SPECIES
Ti1 47.867d00 Ti.UPF
O1 15.999d00 O.UPF
N1 14.007d00 N.UPF
C1 12.011d00 C.UPF
H1 1.008d00 H.UPF
ATOMIC_POSITIONS {crystal}
Ti1      0.000123603383822d0     0.499897385958536d0     0.238512187198856d0
Ti1      0.500142521004230d0     0.250038178055688d0     0.238522014307695d0
O1       0.000095322930372d0     0.000084774873452d0     0.317452257936818d0
O1       0.500112315057126d0     0.000084209992886d0     0.290342007718641d0
O1       0.698270105622955d0     0.250236102495782d0     0.369213011426276d0
O1       0.301995368073695d0     0.249987007385122d0     0.369214717028816d0
Ti1      0.500198167309398d0     0.485761668506182d0     0.364758343030283d0
Ti1      0.000261424674789d0     0.248709163236136d0     0.368424970923767d0
O1       0.498100481027214d0     0.994673564954030d0     0.451501726558886d0
O1       0.001882992193933d0     0.999479849154423d0     0.422099495650131d0
O1       0.195412129964612d0     0.246388602863980d0     0.502566362468617d0
O1       0.801795810091330d0     0.244712809546358d0     0.502434124232484d0
Ti1      0.002502979343736d0     0.495236131744435d0     0.499212633991314d0
Ti1      0.503114491132072d0     0.244576756607653d0     0.496875032531542d0
O1       0.998302683187246d0     0.000790756351344d0     0.584086874144029d0
O1       0.497175858393600d0     0.997724714004175d0     0.556045489236152d0
O1       0.688502863848359d0     0.248048523267152d0     0.642801640592316d0
O1       0.308599483330909d0     0.251230963338207d0     0.645979096243139d0
Ti1      0.499518453862781d0     0.496866665384515d0     0.624648810515954d0
Ti1      0.986631448939215d0     0.242087563174085d0     0.633501566589776d0
O1       0.500093721748991d0     0.000084921243389d0     0.186906639369252d0
O1       0.999337866475754d0     0.985123069576647d0     0.685059088672049d0
O1       0.198268504441574d0     0.250236248865719d0     0.238667392858710d0
O1       0.801993766892314d0     0.249987153755059d0     0.238669098461250d0
Ti1      0.000123603383822d0     0.999897385958536d0     0.238512187198856d0
Ti1      0.500142521004230d0     0.750038178055688d0     0.238522014307695d0
O1       0.000095322930372d0     0.500084774873452d0     0.317452257936818d0
O1       0.500112315057126d0     0.500084209992886d0     0.290342007718641d0
O1       0.698270105622955d0     0.750236102495782d0     0.369213011426276d0
O1       0.301995368073695d0     0.749987007385122d0     0.369214717028816d0
Ti1      0.500001644927041d0     0.985370751416071d0     0.364779031055315d0
Ti1      0.000183276761494d0     0.748948988039575d0     0.368476322807288d0
O1       0.500702545587869d0     0.496565092905124d0     0.451187269944190d0
O1       0.001460782485842d0     0.499964783615161d0     0.422656139091726d0
O1       0.195191682577760d0     0.745099878206631d0     0.503520158386163d0
O1       0.801971676418280d0     0.746464556369323d0     0.503252142723159d0
Ti1      0.001530616663104d0     0.995528644328354d0     0.497393651169397d0
Ti1      0.503062687804947d0     0.744524684365352d0     0.497235792535437d0
O1       0.997256038928560d0     0.487430106447894d0     0.588728189908986d0
O1       0.498500914123104d0     0.493728358743382d0     0.553862409502128d0
O1       0.687630889468381d0     0.741523786697842d0     0.642335241773914d0
O1       0.307268646262363d0     0.741654257202686d0     0.641051868282525d0
Ti1      0.495736334070327d0     0.993898561770840d0     0.627275635177501d0
Ti1      0.001973929353132d0     0.773328357504267d0     0.635253703971885d0
O1       0.500093721748991d0     0.500084921243389d0     0.186906639369252d0
O1       0.198268504441574d0     0.750236248865719d0     0.238667392858710d0
O1       0.801993766892315d0     0.749987153755059d0     0.238669098461250d0
N1       0.155025067087242d0     0.461127922235390d0     0.735358205887976d0
N1       0.993866514883559d0     0.483353094652035d0     0.703232524084402d0
C1       0.187409555250586d0     0.539060817977524d0     0.783149010210989d0
H1       0.332738355226814d0     0.502968569679577d0     0.800899544162424d0
H1       0.076202733670596d0     0.646919133827900d0     0.801763630178107d0
H1       0.263813408466622d0     0.364127633405662d0     0.716656679430910d0
H1       0.873981272734027d0     0.544820163658340d0     0.724345502742030d0
K_POINTS automatic
4 4 1  0 0 0 
