&CONTROL
  calculation='relax',
  prefix='calc',
  pseudo_dir='/storage/coda1/p-amedford6/0/shared/rich_project_chbe-medford/medford-share/data/pseudos_module/espresso/nninc/pbe/van',
  outdir='.',
  tefield=.true.,
  dipfield=.true.,
  tprnfor=.true.,
  disk_io='none',
/
&SYSTEM
  ibrav=0,
  celldm(1)=1.8897261245650618d0,
  nat=53,
  ntyp=5,
  ecutwfc=29.39945797996531d00,
  ecutrho=293.9945797996531d00,
  nbnd=210,
  occupations='smearing',
  smearing='fd',
  degauss=0.007349864494991328d00,
  input_dft='BEEF-vdW',
  edir=3,
  emaxpos=0.0035226886556327663d00,
  eopreg=0.025d00,
  eamp=0.0d00,
  nosym=.false.,
  noinv=.false.,
  nosym_evc=.false.,
  no_t_rev=.false.,
/
&ELECTRONS
  diagonalization='david',
  conv_thr=7.349864494991327e-08,
  mixing_beta=0.05d00,
  electron_maxstep=1000,
  startingpot='file',
  startingwfc='atomic',
/
&IONS
  ion_dynamics='ipi',
/
&CELL
  cell_dynamics='ipi',
/
CELL_PARAMETERS alat
    6.579727202290808d0     0.000000000000000d0     0.000000000000000d0
   -0.000775132442404d0     5.961596420607155d0     0.000000000000000d0
    0.000000000000000d0    -0.000000000000000d0    25.155947251439940d0
ATOMIC_SPECIES
Ti1 47.867d00 Ti.UPF
O1 15.999d00 O.UPF
N1 14.007d00 N.UPF
C1 12.011d00 C.UPF
H1 1.008d00 H.UPF
ATOMIC_POSITIONS {crystal}
Ti1      0.000123603383822d0     0.499897385958536d0     0.238512187198856d0
Ti1      0.500142521004230d0     0.250038178055688d0     0.238522014307695d0
O1       0.000095322930372d0     0.000084774873452d0     0.317452257936818d0
O1       0.500112315057126d0     0.000084209992886d0     0.290342007718641d0
O1       0.698270105622955d0     0.250236102495782d0     0.369213011426276d0
O1       0.301995368073695d0     0.249987007385122d0     0.369214717028816d0
Ti1      0.500198167309398d0     0.485761668506182d0     0.364758343030283d0
Ti1      0.000261424674789d0     0.248709163236136d0     0.368424970923767d0
O1       0.500859277544544d0     0.998961798724239d0     0.447907530838773d0
O1       0.001882992193933d0     0.999479849154423d0     0.422099495650131d0
O1       0.196682036797308d0     0.251812122640224d0     0.502166141665749d0
O1       0.806676885210910d0     0.250806284964049d0     0.501667457292278d0
Ti1      0.001670791443165d0     0.478953241798951d0     0.505304033818630d0
Ti1      0.502158720770469d0     0.221129509739044d0     0.503088106723622d0
O1       0.999750561913422d0     0.001546402080203d0     0.582342504098866d0
O1       0.501921334438687d0     0.006500794898418d0     0.551196143469135d0
O1       0.692814024625985d0     0.256753266276868d0     0.638592770193218d0
O1       0.309494583907754d0     0.258198827300996d0     0.636898659855411d0
Ti1      0.502996229644328d0     0.505083986458988d0     0.621614789288835d0
Ti1      0.005766290774513d0     0.226541311212177d0     0.638844936097310d0
O1       0.500093721748991d0     0.000084921243389d0     0.186906639369252d0
O1       0.006789822940325d0     0.997952737761459d0     0.683209435383230d0
O1       0.198268504441574d0     0.250236248865719d0     0.238667392858710d0
O1       0.801993766892314d0     0.249987153755059d0     0.238669098461250d0
Ti1      0.000123603383822d0     0.999897385958536d0     0.238512187198856d0
Ti1      0.500142521004230d0     0.750038178055688d0     0.238522014307695d0
O1       0.000095322930372d0     0.500084774873452d0     0.317452257936818d0
O1       0.500112315057126d0     0.500084209992886d0     0.290342007718641d0
O1       0.698270105622955d0     0.750236102495782d0     0.369213011426276d0
O1       0.301995368073695d0     0.749987007385122d0     0.369214717028816d0
Ti1      0.500001644927041d0     0.985370751416071d0     0.364779031055315d0
Ti1      0.000183276761494d0     0.748948988039575d0     0.368476322807288d0
O1       0.500973968393781d0     0.508867162374688d0     0.446626731411478d0
O1       0.001460782485842d0     0.499964783615161d0     0.422656139091726d0
O1       0.197674114490513d0     0.752370669878717d0     0.501787602076436d0
O1       0.805489729197038d0     0.753186000614822d0     0.501316467916362d0
Ti1      0.001529075884089d0     0.980349882081776d0     0.501455657867722d0
Ti1      0.501617616037423d0     0.740221514895003d0     0.493138639881977d0
O1       0.998368165592019d0     0.505596688315535d0     0.582949005787598d0
O1       0.504000617399373d0     0.501432658435167d0     0.550446712168371d0
O1       0.691136998924104d0     0.747418860054825d0     0.637561864163463d0
O1       0.308383781223776d0     0.744383675954603d0     0.635325919344644d0
Ti1      0.507053181846885d0     0.005320658819618d0     0.647521561110939d0
Ti1      0.007685697585235d0     0.752521703540293d0     0.630377782204365d0
O1       0.500093721748991d0     0.500084921243389d0     0.186906639369252d0
O1       0.198268504441574d0     0.750236248865719d0     0.238667392858710d0
O1       0.801993766892315d0     0.749987153755059d0     0.238669098461250d0
N1       0.000759569182868d0     0.528950447109518d0     0.739245367174752d0
N1       0.002305602500018d0     0.505921253712130d0     0.691130022932490d0
C1       0.023409818469835d0     0.555164260085359d0     0.785820507209937d0
H1       0.930100309204216d0     0.578727430424246d0     0.820138737942013d0
O1       0.483437963476713d0     0.999676675615717d0     0.719613790022738d0
H1       0.347547417384475d0     0.007370509997971d0     0.735487537352682d0
K_POINTS automatic
4 4 1  0 0 0 
