&CONTROL
  calculation='relax',
  prefix='calc',
  pseudo_dir='/storage/coda1/p-amedford6/0/shared/rich_project_chbe-medford/medford-share/data/pseudos_module/espresso/nninc/pbe/van',
  outdir='.',
  tefield=.true.,
  dipfield=.true.,
  tprnfor=.true.,
  disk_io='none',
/
&SYSTEM
  ibrav=0,
  celldm(1)=1.8897261245650618d0,
  nat=51,
  ntyp=5,
  ecutwfc=29.39945797996531d00,
  ecutrho=293.9945797996531d00,
  nbnd=204,
  occupations='smearing',
  smearing='fd',
  degauss=0.007349864494991328d00,
  input_dft='BEEF-vdW',
  edir=3,
  emaxpos=0.9657219728004891d00,
  eopreg=0.025d00,
  eamp=0.0d00,
  nosym=.false.,
  noinv=.false.,
  nosym_evc=.false.,
  no_t_rev=.false.,
/
&ELECTRONS
  diagonalization='david',
  conv_thr=7.349864494991327e-08,
  mixing_beta=0.05d00,
  electron_maxstep=1000,
  startingwfc='atomic',
/
&IONS
  ion_dynamics='ipi',
/
&CELL
  cell_dynamics='ipi',
/
CELL_PARAMETERS alat
    6.579727202290808d0     0.000000000000000d0     0.000000000000000d0
   -0.000775132442404d0     5.961596420607155d0     0.000000000000000d0
    0.000000000000000d0    -0.000000000000000d0    25.155947251439940d0
ATOMIC_SPECIES
Ti1 47.867d00 Ti.UPF
O1 15.999d00 O.UPF
N1 14.007d00 N.UPF
C1 12.011d00 C.UPF
H1 1.008d00 H.UPF
ATOMIC_POSITIONS {crystal}
Ti1      0.000123603383822d0     0.499897385958536d0     0.238512187198856d0
Ti1      0.500142521004230d0     0.250038178055688d0     0.238522014307695d0
O1       0.000095322930372d0     0.000084774873452d0     0.317452257936818d0
O1       0.500112315057126d0     0.000084209992886d0     0.290342007718641d0
O1       0.698270105622955d0     0.250236102495782d0     0.369213011426276d0
O1       0.301995368073695d0     0.249987007385122d0     0.369214717028816d0
Ti1      0.500198167309398d0     0.485761668506182d0     0.364758343030283d0
Ti1      0.000261424674789d0     0.248709163236136d0     0.368424970923767d0
O1       0.503292978889454d0     0.996280330557241d0     0.450950368598612d0
O1       0.001882992193933d0     0.999479849154423d0     0.422099495650131d0
O1       0.200792726815782d0     0.246266823303713d0     0.502417379961758d0
O1       0.807323335563394d0     0.246405382052168d0     0.502358314916863d0
Ti1      0.996857479530111d0     0.491439837792756d0     0.503396142181044d0
Ti1      0.497058627139517d0     0.245540164133276d0     0.496721930350615d0
O1       0.001390102006758d0     0.998034419994135d0     0.582492505287020d0
O1       0.505722570880717d0     0.995928609089957d0     0.554427831554295d0
O1       0.690032905002430d0     0.245029499332693d0     0.641201041207699d0
O1       0.312541071230467d0     0.244999726352532d0     0.639449537131637d0
Ti1      0.504931460377253d0     0.492598629269722d0     0.624430171667166d0
Ti1      0.012094809682457d0     0.230139210540737d0     0.643205515294231d0
O1       0.500093721748991d0     0.000084921243389d0     0.186906639369252d0
O1       0.000857520644858d0     0.981954407659334d0     0.682632384033202d0
O1       0.198268504441574d0     0.250236248865719d0     0.238667392858710d0
O1       0.801993766892314d0     0.249987153755059d0     0.238669098461250d0
Ti1      0.000123603383822d0     0.999897385958536d0     0.238512187198856d0
Ti1      0.500142521004230d0     0.750038178055688d0     0.238522014307695d0
O1       0.000095322930372d0     0.500084774873452d0     0.317452257936818d0
O1       0.500112315057126d0     0.500084209992886d0     0.290342007718641d0
O1       0.698270105622955d0     0.750236102495782d0     0.369213011426276d0
O1       0.301995368073695d0     0.749987007385122d0     0.369214717028816d0
Ti1      0.500001644927041d0     0.985370751416071d0     0.364779031055315d0
Ti1      0.000183276761494d0     0.748948988039575d0     0.368476322807288d0
O1       0.502152377588239d0     0.496436671758401d0     0.450845368369385d0
O1       0.001460782485842d0     0.499964783615161d0     0.422656139091726d0
O1       0.201489161900535d0     0.748609674981957d0     0.502691067530687d0
O1       0.807110778685857d0     0.747004074493006d0     0.502570424993295d0
Ti1      0.001206020475105d0     0.993076454600448d0     0.497674423125915d0
Ti1      0.498202143595967d0     0.745706472338374d0     0.496679686817727d0
O1       0.002676683180387d0     0.495013706875607d0     0.585696782529608d0
O1       0.505100046743221d0     0.494648458483505d0     0.553218715804607d0
O1       0.692711280678503d0     0.740526220010764d0     0.639279557006270d0
O1       0.313197006819606d0     0.741450562593105d0     0.638923760767785d0
Ti1      0.510392401771736d0     0.993190774457084d0     0.625857044229310d0
Ti1      0.010826544954396d0     0.761587348272926d0     0.627462943900176d0
O1       0.500093721748991d0     0.500084921243389d0     0.186906639369252d0
O1       0.198268504441574d0     0.750236248865719d0     0.238667392858710d0
O1       0.801993766892315d0     0.749987153755059d0     0.238669098461250d0
N1       0.971658124663901d0     0.478007240988064d0     0.705245933937775d0
C1       0.094821679732042d0     0.449366511528639d0     0.744537306231726d0
H1       0.233356242880301d0     0.354279525612844d0     0.734353953193943d0
H1       0.838961727614486d0     0.557409017333155d0     0.714828228236889d0
K_POINTS automatic
4 4 1  0 0 0 
