&CONTROL
  calculation='relax',
  prefix='calc',
  pseudo_dir='/storage/coda1/p-amedford6/0/shared/rich_project_chbe-medford/medford-share/data/pseudos_module/espresso/nninc/pbe/van',
  outdir='.',
  tefield=.true.,
  dipfield=.true.,
  tprnfor=.true.,
  disk_io='none',
/
&SYSTEM
  ibrav=0,
  celldm(1)=1.8897261245650618d0,
  nat=54,
  ntyp=5,
  ecutwfc=29.39945797996531d00,
  ecutrho=293.9945797996531d00,
  nbnd=208,
  occupations='smearing',
  smearing='fd',
  degauss=0.007349864494991328d00,
  nspin=2,
  starting_magnetization(1)=0.0d00,
  starting_magnetization(2)=0.0d00,
  starting_magnetization(3)=0.0d00,
  starting_magnetization(4)=0.025d00,
  starting_magnetization(5)=0.0d00,
  input_dft='BEEF-vdW',
  edir=3,
  emaxpos=0.9778602741322382d00,
  eopreg=0.025d00,
  eamp=0.0d00,
  nosym=.false.,
  noinv=.false.,
  nosym_evc=.false.,
  no_t_rev=.false.,
/
&ELECTRONS
  diagonalization='david',
  conv_thr=7.349864494991327e-08,
  mixing_beta=0.05d00,
  electron_maxstep=1000,
  startingpot='file',
  startingwfc='atomic',
/
&IONS
  ion_dynamics='ipi',
/
&CELL
  cell_dynamics='ipi',
/
CELL_PARAMETERS alat
    6.579727202290808d0     0.000000000000000d0     0.000000000000000d0
   -0.000775132442404d0     5.961596420607155d0     0.000000000000000d0
    0.000000000000000d0    -0.000000000000000d0    25.155947251439940d0
ATOMIC_SPECIES
Ti1 47.867d00 Ti.UPF
O1 15.999d00 O.UPF
N1 14.007d00 N.UPF
C1 12.011d00 C.UPF
H1 1.008d00 H.UPF
ATOMIC_POSITIONS {crystal}
Ti1      0.000123603383822d0     0.499897385958536d0     0.238512187198856d0
Ti1      0.500142521004230d0     0.250038178055688d0     0.238522014307695d0
O1       0.000095322930372d0     0.000084774873452d0     0.317452257936818d0
O1       0.500112315057126d0     0.000084209992886d0     0.290342007718641d0
O1       0.698270105622955d0     0.250236102495782d0     0.369213011426276d0
O1       0.301995368073695d0     0.249987007385122d0     0.369214717028816d0
Ti1      0.500198167309398d0     0.485761668506182d0     0.364758343030283d0
Ti1      0.000261424674789d0     0.248709163236136d0     0.368424970923767d0
O1       0.503165960600580d0     0.001411319626588d0     0.448909665381421d0
O1       0.001882992193933d0     0.999479849154423d0     0.422099495650131d0
O1       0.201487009884131d0     0.254159393360889d0     0.500316114413890d0
O1       0.809282302773824d0     0.249450092162029d0     0.502631139112696d0
Ti1      0.993392501761506d0     0.502218898690659d0     0.506868010255605d0
Ti1      0.483764158386761d0     0.252160160333945d0     0.495026395526520d0
O1       0.020308083461722d0     0.001231847736990d0     0.581440033522920d0
O1       0.494707164425199d0     0.004842661012084d0     0.549796015409159d0
O1       0.704230343890399d0     0.251844330411201d0     0.635206764477409d0
O1       0.325418897207442d0     0.259509017948272d0     0.635853415282286d0
Ti1      0.528935646941379d0     0.508351815417904d0     0.622492360888669d0
Ti1      0.021099318563838d0     0.230216046866786d0     0.630522728608898d0
O1       0.500093721748991d0     0.000084921243389d0     0.186906639369252d0
O1       0.021720744571623d0     0.005601518697982d0     0.683369900374941d0
O1       0.198268504441574d0     0.250236248865719d0     0.238667392858710d0
O1       0.801993766892314d0     0.249987153755059d0     0.238669098461250d0
Ti1      0.000123603383822d0     0.999897385958536d0     0.238512187198856d0
Ti1      0.500142521004230d0     0.750038178055688d0     0.238522014307695d0
O1       0.000095322930372d0     0.500084774873452d0     0.317452257936818d0
O1       0.500112315057126d0     0.500084209992886d0     0.290342007718641d0
O1       0.698270105622955d0     0.750236102495782d0     0.369213011426276d0
O1       0.301995368073695d0     0.749987007385122d0     0.369214717028816d0
Ti1      0.500001644927041d0     0.985370751416071d0     0.364779031055315d0
Ti1      0.000183276761494d0     0.748948988039575d0     0.368476322807288d0
O1       0.503687977225342d0     0.502552693866582d0     0.448974678854475d0
O1       0.001460782485842d0     0.499964783615161d0     0.422656139091726d0
O1       0.201232032765308d0     0.749597976285901d0     0.500601206528332d0
O1       0.808971601796667d0     0.753699706215451d0     0.502663334610090d0
Ti1      0.988515463061847d0     0.000903044626206d0     0.500214945649158d0
Ti1      0.484048263949698d0     0.751681021056487d0     0.495001998721531d0
O1       0.008948172095485d0     0.499745498205336d0     0.583256522193790d0
O1       0.505133641637039d0     0.502019622106833d0     0.550660478752137d0
O1       0.702822731987055d0     0.768880772493253d0     0.625986783443744d0
O1       0.332661429603555d0     0.749691984512925d0     0.640159896156525d0
Ti1      0.501776364815696d0     0.004070387538342d0     0.621657427575060d0
Ti1      0.002851769147315d0     0.753669766662665d0     0.643709300874058d0
O1       0.500093721748991d0     0.500084921243389d0     0.186906639369252d0
O1       0.198268504441574d0     0.750236248865719d0     0.238667392858710d0
O1       0.801993766892315d0     0.749987153755059d0     0.238669098461250d0
N1       0.040745644864149d0     0.482435280123365d0     0.698266481636425d0
C1       0.186562110179828d0     0.463632366111217d0     0.741767972317746d0
H1       0.196586860229043d0     0.622428856651131d0     0.763528032793043d0
H1       0.136471364387820d0     0.330958631800997d0     0.768813908895224d0
H1       0.335964363264122d0     0.418889904177980d0     0.726866886229270d0
N1       0.862295918171712d0     0.585866735309747d0     0.709383547778809d0
H1       0.871628362716227d0     0.670261656470094d0     0.744729898042802d0
K_POINTS automatic
4 4 1  0 0 0 
