&CONTROL
  calculation='relax',
  prefix='calc',
  pseudo_dir='/storage/coda1/p-amedford6/0/shared/rich_project_chbe-medford/medford-share/data/pseudos_module/espresso/nninc/pbe/van',
  outdir='.',
  tefield=.true.,
  dipfield=.true.,
  tprnfor=.true.,
  disk_io='none',
/
&SYSTEM
  ibrav=0,
  celldm(1)=1.8897261245650618d0,
  nat=53,
  ntyp=5,
  ecutwfc=29.39945797996531d00,
  ecutrho=293.9945797996531d00,
  nbnd=210,
  occupations='smearing',
  smearing='fd',
  degauss=0.007349864494991328d00,
  input_dft='BEEF-vdW',
  edir=3,
  emaxpos=0.014844019084464977d00,
  eopreg=0.025d00,
  eamp=0.0d00,
  nosym=.false.,
  noinv=.false.,
  nosym_evc=.false.,
  no_t_rev=.false.,
/
&ELECTRONS
  diagonalization='david',
  conv_thr=7.349864494991327e-08,
  mixing_beta=0.05d00,
  electron_maxstep=1000,
  startingpot='file',
  startingwfc='atomic',
/
&IONS
  ion_dynamics='ipi',
/
&CELL
  cell_dynamics='ipi',
/
CELL_PARAMETERS alat
    6.579727202290808d0     0.000000000000000d0     0.000000000000000d0
   -0.000775132442404d0     5.961596420607155d0     0.000000000000000d0
    0.000000000000000d0    -0.000000000000000d0    25.155947251439940d0
ATOMIC_SPECIES
Ti1 47.867d00 Ti.UPF
O1 15.999d00 O.UPF
N1 14.007d00 N.UPF
C1 12.011d00 C.UPF
H1 1.008d00 H.UPF
ATOMIC_POSITIONS {crystal}
Ti1      0.000123603383822d0     0.499897385958536d0     0.238512187198856d0
Ti1      0.500142521004230d0     0.250038178055688d0     0.238522014307695d0
O1       0.000095322930372d0     0.000084774873452d0     0.317452257936818d0
O1       0.500112315057126d0     0.000084209992886d0     0.290342007718641d0
O1       0.698270105622955d0     0.250236102495782d0     0.369213011426276d0
O1       0.301995368073695d0     0.249987007385122d0     0.369214717028816d0
Ti1      0.498343933056688d0     0.480077177968786d0     0.364425458537586d0
Ti1      0.999793388994424d0     0.240565272495641d0     0.373005849283131d0
O1       0.503875524761174d0     0.997845168486986d0     0.451107785564681d0
O1       0.001080886151572d0     0.997886462267092d0     0.419821625932516d0
O1       0.198137366215199d0     0.248386810587437d0     0.502652199699173d0
O1       0.805773457232305d0     0.248567121315097d0     0.502302077565967d0
Ti1      0.016413501995788d0     0.498422788499497d0     0.509948249541357d0
Ti1      0.521225182440173d0     0.246877818771526d0     0.496649287306452d0
O1       0.004502666615234d0     0.000233997352512d0     0.582963276082452d0
O1       0.503781947147146d0     0.999050776992260d0     0.554353752786479d0
O1       0.692595098111125d0     0.248974412832836d0     0.638587183131434d0
O1       0.314254635488108d0     0.248708835797108d0     0.638485250422329d0
Ti1      0.502843850906837d0     0.497011447886699d0     0.624141433699451d0
Ti1      0.001513359610732d0     0.243565272833009d0     0.642889407521648d0
O1       0.500093721748991d0     0.000084921243389d0     0.186906639369252d0
O1       0.003028508862031d0     0.995434663304404d0     0.685640957261239d0
O1       0.198268504441574d0     0.250236248865719d0     0.238667392858710d0
O1       0.801993766892314d0     0.249987153755059d0     0.238669098461250d0
Ti1      0.000123603383822d0     0.999897385958536d0     0.238512187198856d0
Ti1      0.500142521004230d0     0.750038178055688d0     0.238522014307695d0
O1       0.000095322930372d0     0.500084774873452d0     0.317452257936818d0
O1       0.500112315057126d0     0.500084209992886d0     0.290342007718641d0
O1       0.698270105622955d0     0.750236102495782d0     0.369213011426276d0
O1       0.301995368073695d0     0.749987007385122d0     0.369214717028816d0
Ti1      0.501368987565545d0     0.980019377246358d0     0.364343542205231d0
Ti1      0.001027829489274d0     0.740935872513631d0     0.372945400779829d0
O1       0.504044649971839d0     0.498441350439757d0     0.451089641312386d0
O1       0.001297595814617d0     0.497984141128938d0     0.419894071298561d0
O1       0.198273854572603d0     0.749164103134947d0     0.502852993406931d0
O1       0.805721080173675d0     0.749004984593823d0     0.502485465336996d0
Ti1      0.015509143614091d0     0.998658834013410d0     0.510157306508614d0
Ti1      0.521182513857292d0     0.748160271080766d0     0.496615073649381d0
O1       0.004907255874389d0     0.498425488636304d0     0.582772469708455d0
O1       0.503142669738784d0     0.497298640337918d0     0.552813559317441d0
O1       0.693446252998752d0     0.743900801709679d0     0.637255685358134d0
O1       0.313643894953904d0     0.744141860992383d0     0.637385017846232d0
Ti1      0.501993452538163d0     0.996887952265369d0     0.626732253860280d0
Ti1      0.001554675394113d0     0.742780814733106d0     0.642677365370981d0
O1       0.500093721748991d0     0.500084921243389d0     0.186906639369252d0
O1       0.003118709633713d0     0.496214756898197d0     0.685649431547920d0
O1       0.198268504441574d0     0.750236248865719d0     0.238667392858710d0
O1       0.801993766892315d0     0.749987153755059d0     0.238669098461250d0
N1       0.485018120371463d0     0.018475688258460d0     0.771740824679666d0
N1       0.497404538003277d0     0.961070747186321d0     0.728401656478419d0
C1       0.470990595631643d0     0.074365854732342d0     0.820920017925961d0
H1       0.321276802218124d0     0.092201356502680d0     0.837700374124613d0
H1       0.609716852466345d0     0.099621953556541d0     0.842781398799678d0
K_POINTS automatic
4 4 1  0 0 0 
