&CONTROL
  calculation='relax',
  prefix='calc',
  pseudo_dir='/storage/coda1/p-amedford6/0/shared/rich_project_chbe-medford/medford-share/data/pseudos_module/espresso/nninc/pbe/van',
  outdir='.',
  tefield=.true.,
  dipfield=.true.,
  tprnfor=.true.,
  disk_io='none',
/
&SYSTEM
  ibrav=0,
  celldm(1)=1.8897261245650618d0,
  nat=59,
  ntyp=4,
  ecutwfc=29.39945797996531d00,
  ecutrho=293.9945797996531d00,
  nbnd=230,
  occupations='smearing',
  smearing='fd',
  degauss=0.007349864494991328d00,
  input_dft='BEEF-vdW',
  edir=3,
  emaxpos=0.032534299189697746d00,
  eopreg=0.025d00,
  eamp=0.0d00,
  nosym=.false.,
  noinv=.false.,
  nosym_evc=.false.,
  no_t_rev=.false.,
/
&ELECTRONS
  diagonalization='david',
  conv_thr=7.349864494991327e-08,
  mixing_beta=0.05d00,
  electron_maxstep=1000,
  startingpot='file',
  startingwfc='atomic',
/
&IONS
  ion_dynamics='ipi',
/
&CELL
  cell_dynamics='ipi',
/
CELL_PARAMETERS alat
    6.579727202290808d0     0.000000000000000d0     0.000000000000000d0
   -0.001162698663605d0     8.942394630910734d0     0.000000000000000d0
    0.000000000000000d0    -0.000000000000000d0    25.155947251439940d0
ATOMIC_SPECIES
O1 15.999d00 O.UPF
Ti1 47.867d00 Ti.UPF
H1 1.008d00 H.UPF
N1 14.007d00 N.UPF
ATOMIC_POSITIONS {crystal}
O1       0.000111781329999d0     0.000056172521910d0     0.421099706309416d0
O1       0.500009871600157d0     0.999101047261321d0     0.548013169723264d0
O1       0.000108543677218d0     0.995673788685180d0     0.682369855719314d0
O1       0.000095322930372d0     0.000056516582301d0     0.317452257936818d0
O1       0.500136283447025d0     0.000634392666543d0     0.443052339831262d0
O1       0.000189877232744d0     0.995536482552507d0     0.577016182207718d0
O1       0.301995368073695d0     0.166658004923414d0     0.369214717028816d0
O1       0.792309713616950d0     0.176324511640277d0     0.498538941181574d0
O1       0.310224637898696d0     0.157465268612119d0     0.634994625671551d0
Ti1      0.000141987277103d0     0.166692151230444d0     0.369279712898471d0
Ti1      0.500411127867889d0     0.145702719162910d0     0.494496091986698d0
Ti1      0.999864532062755d0     0.186551664034821d0     0.637940021035733d0
O1       0.698270105622955d0     0.166824068330521d0     0.369213011426276d0
O1       0.208149322305938d0     0.176279569731431d0     0.498527135232281d0
O1       0.689845434723211d0     0.157296432440434d0     0.634983471391181d0
Ti1      0.500123069656695d0     0.333264956499010d0     0.369269885789632d0
Ti1      0.000449869974647d0     0.311087278499228d0     0.498851668125561d0
Ti1      0.499945072028807d0     0.346183397064560d0     0.621487408108063d0
O1       0.000111781329999d0     0.333389505855244d0     0.421099706309416d0
O1       0.500170979083576d0     0.330541132508006d0     0.548225209254779d0
O1       0.000095322930372d0     0.333389849915635d0     0.317452257936818d0
O1       0.500198684261229d0     0.333762829578890d0     0.443857761973670d0
O1       0.000068896736705d0     0.332743728835518d0     0.580252283321480d0
O1       0.301995368073695d0     0.499991338256748d0     0.369214717028816d0
O1       0.794269394469711d0     0.508164759603399d0     0.499007901813152d0
O1       0.310339506338390d0     0.489856230219447d0     0.635280874872861d0
Ti1      0.000141987277103d0     0.500025484563778d0     0.369279712898471d0
Ti1      0.500526280538145d0     0.483640319645870d0     0.498242514581996d0
Ti1      0.000065333062806d0     0.489567982952950d0     0.639047012723903d0
O1       0.698270105622955d0     0.500157401663855d0     0.369213011426276d0
O1       0.206099148322844d0     0.507951492452541d0     0.499000201863216d0
O1       0.689711706183712d0     0.489895140396318d0     0.635302977803222d0
Ti1      0.500123069656695d0     0.666598289832344d0     0.369269885789632d0
Ti1      0.000459946527039d0     0.643598633871069d0     0.497614578442848d0
Ti1      0.500319283934426d0     0.679046531249399d0     0.647276444927949d0
O1       0.000111781329999d0     0.666722839188577d0     0.421099706309416d0
O1       0.500113873368338d0     0.660889422338961d0     0.548080672372094d0
O1       0.000083466468863d0     0.670555614298595d0     0.682200020007471d0
O1       0.000095322930372d0     0.666723183248968d0     0.317452257936818d0
O1       0.500121904446612d0     0.664286745288570d0     0.443835240602783d0
O1       0.000145647553351d0     0.675417969059496d0     0.577746027459231d0
O1       0.301995368073695d0     0.833324671590081d0     0.369214717028816d0
O1       0.793553397638511d0     0.841385838294991d0     0.497960614189763d0
O1       0.308801185675794d0     0.831580262727426d0     0.635779961437845d0
Ti1      0.000141987277103d0     0.833358817897111d0     0.369279712898471d0
Ti1      0.500125749213010d0     0.805305206453308d0     0.500497059351319d0
Ti1      0.000130023616247d0     0.838784059433235d0     0.621967738114944d0
O1       0.698270105622955d0     0.833490734997188d0     0.369213011426276d0
O1       0.206549483037500d0     0.841234043628980d0     0.497946910258997d0
O1       0.691459611660435d0     0.831585877145748d0     0.635767402697401d0
Ti1      0.500123069656695d0     0.999931623165677d0     0.369269885789632d0
Ti1      0.000095682937021d0     0.975905233638662d0     0.496143324888428d0
Ti1      0.499819747819741d0     0.008900589558202d0     0.621563142901343d0
H1       0.999917751556609d0     0.674062242684516d0     0.720471106151040d0
H1       0.999980354424556d0     0.991173661818366d0     0.720173790340326d0
N1       0.999977979181935d0     0.336186739249908d0     0.684804336825079d0
N1       0.500175018547706d0     0.670281607095129d0     0.723107200158612d0
H1       0.499911523016123d0     0.574166814473218d0     0.744378296162206d0
H1       0.500048597276021d0     0.759962500081487d0     0.747616340442577d0
K_POINTS automatic
4 4 1  0 0 0 
