&CONTROL
  calculation='relax',
  prefix='calc',
  pseudo_dir='/storage/coda1/p-amedford6/0/shared/rich_project_chbe-medford/medford-share/data/pseudos_module/espresso/nninc/pbe/van',
  outdir='.',
  tefield=.true.,
  dipfield=.true.,
  tprnfor=.true.,
  disk_io='none',
/
&SYSTEM
  ibrav=0,
  celldm(1)=1.8897261245650618d0,
  nat=52,
  ntyp=5,
  ecutwfc=29.39945797996531d00,
  ecutrho=293.9945797996531d00,
  nbnd=207,
  occupations='smearing',
  smearing='fd',
  degauss=0.007349864494991328d00,
  input_dft='BEEF-vdW',
  edir=3,
  emaxpos=0.999546935341809d00,
  eopreg=0.025d00,
  eamp=0.0d00,
  nosym=.false.,
  noinv=.false.,
  nosym_evc=.false.,
  no_t_rev=.false.,
/
&ELECTRONS
  diagonalization='david',
  conv_thr=7.349864494991327e-08,
  mixing_beta=0.05d00,
  electron_maxstep=1000,
  startingwfc='atomic',
/
&IONS
  ion_dynamics='ipi',
/
&CELL
  cell_dynamics='ipi',
/
CELL_PARAMETERS alat
    6.579727202290808d0     0.000000000000000d0     0.000000000000000d0
   -0.000775132442404d0     5.961596420607155d0     0.000000000000000d0
    0.000000000000000d0    -0.000000000000000d0    25.155947251439940d0
ATOMIC_SPECIES
Ti1 47.867d00 Ti.UPF
O1 15.999d00 O.UPF
N1 14.007d00 N.UPF
C1 12.011d00 C.UPF
H1 1.008d00 H.UPF
ATOMIC_POSITIONS {crystal}
Ti1      0.000123603383822d0     0.499897385958536d0     0.238512187198856d0
Ti1      0.500142521004230d0     0.250038178055688d0     0.238522014307695d0
O1       0.000095322930372d0     0.000084774873452d0     0.317452257936818d0
O1       0.500112315057126d0     0.000084209992886d0     0.290342007718641d0
O1       0.698270105622955d0     0.250236102495782d0     0.369213011426276d0
O1       0.301995368073695d0     0.249987007385122d0     0.369214717028816d0
Ti1      0.500198167309398d0     0.485761668506182d0     0.364758343030283d0
Ti1      0.000261424674789d0     0.248709163236136d0     0.368424970923767d0
O1       0.499911920079291d0     0.999585540962319d0     0.449660427924635d0
O1       0.001882992193933d0     0.999479849154423d0     0.422099495650131d0
O1       0.195591678709665d0     0.249736326650789d0     0.502881779926471d0
O1       0.801380697370717d0     0.249556467280640d0     0.501047057035338d0
Ti1      0.013708349613195d0     0.497740542734281d0     0.506188471491789d0
Ti1      0.520559334174996d0     0.247749910902073d0     0.495681980342624d0
O1       0.995127572534342d0     0.999036843177162d0     0.580324209913650d0
O1       0.503173905726950d0     0.002052886746317d0     0.552230574105519d0
O1       0.686161641251967d0     0.259227488209762d0     0.639470195247692d0
O1       0.312602388346099d0     0.257398559941616d0     0.636322982715173d0
Ti1      0.497544894038234d0     0.507130588513484d0     0.624172638610833d0
Ti1      0.993388937018874d0     0.269161242687931d0     0.638794010886401d0
O1       0.500093721748991d0     0.000084921243389d0     0.186906639369252d0
O1       0.001830612286944d0     0.008725691954670d0     0.683183772713362d0
O1       0.198268504441574d0     0.250236248865719d0     0.238667392858710d0
O1       0.801993766892314d0     0.249987153755059d0     0.238669098461250d0
Ti1      0.000123603383822d0     0.999897385958536d0     0.238512187198856d0
Ti1      0.500142521004230d0     0.750038178055688d0     0.238522014307695d0
O1       0.000095322930372d0     0.500084774873452d0     0.317452257936818d0
O1       0.500112315057126d0     0.500084209992886d0     0.290342007718641d0
O1       0.698270105622955d0     0.750236102495782d0     0.369213011426276d0
O1       0.301995368073695d0     0.749987007385122d0     0.369214717028816d0
Ti1      0.500001644927041d0     0.985370751416071d0     0.364779031055315d0
Ti1      0.000183276761494d0     0.748948988039575d0     0.368476322807288d0
O1       0.499490095302351d0     0.499547445676215d0     0.449782098645778d0
O1       0.001460782485842d0     0.499964783615161d0     0.422656139091726d0
O1       0.195654860725438d0     0.747560390494641d0     0.502706965701071d0
O1       0.801262098309201d0     0.748933901469384d0     0.500791303871269d0
Ti1      0.014493669310074d0     0.997637251083994d0     0.504904880569413d0
Ti1      0.520506497983075d0     0.748539192463136d0     0.495853767380884d0
O1       0.994162112833304d0     0.498144979105085d0     0.582439727228282d0
O1       0.503243140881034d0     0.502786825028407d0     0.552212908898950d0
O1       0.686748024922434d0     0.755887063912988d0     0.639746814640002d0
O1       0.311712707814233d0     0.758931072757131d0     0.636806635711065d0
Ti1      0.497856438764784d0     0.007659461782506d0     0.624044153715364d0
Ti1      0.998080310961002d0     0.779173693046360d0     0.638134924798530d0
O1       0.500093721748991d0     0.500084921243389d0     0.186906639369252d0
O1       0.198268504441574d0     0.750236248865719d0     0.238667392858710d0
O1       0.801993766892315d0     0.749987153755059d0     0.238669098461250d0
N1       0.104528116448846d0     0.515858793276826d0     0.737513998021417d0
N1       0.017475605332682d0     0.506518908019160d0     0.690642330629459d0
C1       0.052251759528196d0     0.643222296879266d0     0.776424360902087d0
H1       0.925347395713925d0     0.760354171597818d0     0.774649913951230d0
H1       0.143586500776859d0     0.634118001438934d0     0.812187231314366d0
K_POINTS automatic
4 4 1  0 0 0 
