&CONTROL
  calculation='relax',
  prefix='calc',
  pseudo_dir='/storage/coda1/p-amedford6/0/shared/rich_project_chbe-medford/medford-share/data/pseudos_module/espresso/nninc/pbe/van',
  outdir='.',
  tefield=.true.,
  dipfield=.true.,
  tprnfor=.true.,
  disk_io='none',
/
&SYSTEM
  ibrav=0,
  celldm(1)=1.8897261245650618d0,
  nat=51,
  ntyp=4,
  ecutwfc=29.39945797996531d00,
  ecutrho=293.9945797996531d00,
  nbnd=203,
  occupations='smearing',
  smearing='fd',
  degauss=0.007349864494991328d00,
  input_dft='BEEF-vdW',
  edir=3,
  emaxpos=0.9601851203802565d00,
  eopreg=0.025d00,
  eamp=0.0d00,
  nosym=.false.,
  noinv=.false.,
  nosym_evc=.false.,
  no_t_rev=.false.,
/
&ELECTRONS
  diagonalization='david',
  conv_thr=7.349864494991327e-08,
  mixing_beta=0.05d00,
  electron_maxstep=1000,
  startingpot='file',
  startingwfc='atomic',
/
&IONS
  ion_dynamics='ipi',
/
&CELL
  cell_dynamics='ipi',
/
CELL_PARAMETERS alat
    6.579727202290808d0     0.000000000000000d0     0.000000000000000d0
   -0.000775132442404d0     5.961596420607155d0     0.000000000000000d0
    0.000000000000000d0    -0.000000000000000d0    25.155947251439937d0
ATOMIC_SPECIES
Ti1 47.867d00 Ti.UPF
O1 15.999d00 O.UPF
N1 14.007d00 N.UPF
H1 1.008d00 H.UPF
ATOMIC_POSITIONS {crystal}
Ti1      0.000123603383822d0     0.499897385958537d0     0.238512187198856d0
Ti1      0.500142521004230d0     0.250038178055688d0     0.238522014307695d0
O1       0.000095322930372d0     0.000084774873452d0     0.317452257936818d0
O1       0.500112315057126d0     0.000084209992886d0     0.290342007718641d0
O1       0.698270105622955d0     0.250236102495782d0     0.369213011426276d0
O1       0.301995368073694d0     0.249987007385122d0     0.369214717028816d0
Ti1      0.500158505070872d0     0.500155774594832d0     0.364163076180906d0
Ti1      0.000162087224484d0     0.249991612066862d0     0.368023555011392d0
O1       0.500850375358782d0     0.000214260045167d0     0.452165625540553d0
O1       0.000308384018055d0     0.000102052839601d0     0.421662897700986d0
O1       0.196734924198841d0     0.249716934285959d0     0.503379167904804d0
O1       0.805119542828490d0     0.249777357716516d0     0.503459991820986d0
Ti1      0.001086676857005d0     0.499646297256768d0     0.497491855535651d0
Ti1      0.501303017889502d0     0.250064820916650d0     0.497690353829755d0
O1       0.001464851222308d0     0.994499605123226d0     0.583850870378924d0
O1       0.501303482558042d0     0.998818857456346d0     0.556436472874007d0
O1       0.693348160830370d0     0.252714180739448d0     0.642459548432681d0
O1       0.310179055941885d0     0.252531642050784d0     0.642468187738764d0
Ti1      0.501651088662987d0     0.499892132263117d0     0.625952416307467d0
Ti1      0.001885937162223d0     0.227987774422354d0     0.631765637865953d0
O1       0.500093721748991d0     0.000084921243389d0     0.186906639369252d0
O1       0.001693668348638d0     0.005489386298380d0     0.684448050701871d0
O1       0.198268504441573d0     0.250236248865719d0     0.238667392858710d0
O1       0.801993766892314d0     0.249987153755059d0     0.238669098461250d0
Ti1      0.000123603383822d0     0.999897385958537d0     0.238512187198856d0
Ti1      0.500142521004230d0     0.750038178055688d0     0.238522014307695d0
O1       0.000095322930372d0     0.500084774873452d0     0.317452257936818d0
O1       0.500112315057126d0     0.500084209992886d0     0.290342007718641d0
O1       0.698270105622955d0     0.750236102495782d0     0.369213011426276d0
O1       0.301995368073694d0     0.749987007385122d0     0.369214717028816d0
Ti1      0.500156890730762d0     0.000157772383712d0     0.364094566240812d0
Ti1      0.000162483947971d0     0.750224524806221d0     0.368020999893661d0
O1       0.500842236293660d0     0.499422837183981d0     0.451887347355281d0
O1       0.000362569674559d0     0.499598251110026d0     0.422463267145973d0
O1       0.196848869604971d0     0.749367795364252d0     0.502865169881073d0
O1       0.805004958945099d0     0.749264606612446d0     0.502952233249218d0
Ti1      0.001226624815682d0     0.999145466947129d0     0.496190180268560d0
Ti1      0.501335734547194d0     0.749595557512900d0     0.497537575566183d0
O1       0.001561116146545d0     0.501813790458314d0     0.592325864621275d0
O1       0.500998899887293d0     0.500683464248864d0     0.554876979730931d0
O1       0.692992831412361d0     0.746938174718346d0     0.643724677016070d0
O1       0.310603374268728d0     0.747244791039181d0     0.643656729422823d0
Ti1      0.502011033627972d0     0.000181818435135d0     0.627784192428349d0
Ti1      0.001786572081320d0     0.765066681031910d0     0.635224277448658d0
O1       0.500093721748991d0     0.500084921243389d0     0.186906639369252d0
O1       0.198268504441573d0     0.750236248865719d0     0.238667392858710d0
O1       0.801993766892314d0     0.749987153755059d0     0.238669098461250d0
N1       0.005356234374941d0     0.509668012502972d0     0.717078959710541d0
H1       0.005280423235233d0     0.348282811253909d0     0.729362794405593d0
H1       0.131559605303335d0     0.585127265948859d0     0.732439696661893d0
H1       0.882074354713587d0     0.586842137908518d0     0.733463601391261d0
K_POINTS automatic
4 4 1  0 0 0 
