&CONTROL
  calculation='relax',
  prefix='calc',
  pseudo_dir='/storage/coda1/p-amedford6/0/shared/rich_project_chbe-medford/medford-share/data/pseudos_module/espresso/nninc/pbe/van',
  outdir='.',
  tefield=.true.,
  dipfield=.true.,
  tprnfor=.true.,
  disk_io='none',
/
&SYSTEM
  ibrav=0,
  celldm(1)=1.8897261245650618d0,
  nat=55,
  ntyp=5,
  ecutwfc=29.39945797996531d00,
  ecutrho=293.9945797996531d00,
  nbnd=211,
  occupations='smearing',
  smearing='fd',
  degauss=0.007349864494991328d00,
  input_dft='BEEF-vdW',
  edir=3,
  emaxpos=0.9854885845172484d00,
  eopreg=0.025d00,
  eamp=0.0d00,
  nosym=.false.,
  noinv=.false.,
  nosym_evc=.false.,
  no_t_rev=.false.,
/
&ELECTRONS
  diagonalization='david',
  conv_thr=7.349864494991327e-08,
  mixing_beta=0.05d00,
  electron_maxstep=1000,
  startingwfc='atomic',
/
&IONS
  ion_dynamics='ipi',
/
&CELL
  cell_dynamics='ipi',
/
CELL_PARAMETERS alat
    6.579727202290808d0     0.000000000000000d0     0.000000000000000d0
   -0.000775132442404d0     5.961596420607155d0     0.000000000000000d0
    0.000000000000000d0    -0.000000000000000d0    25.155947251439940d0
ATOMIC_SPECIES
Ti1 47.867d00 Ti.UPF
O1 15.999d00 O.UPF
C1 12.011d00 C.UPF
H1 1.008d00 H.UPF
N1 14.007d00 N.UPF
ATOMIC_POSITIONS {crystal}
Ti1      0.000123603383822d0     0.499897385958537d0     0.238512187198856d0
Ti1      0.500142521004230d0     0.250038178055688d0     0.238522014307695d0
O1       0.000095322930372d0     0.000084774873452d0     0.317452257936818d0
O1       0.500112315057126d0     0.000084209992886d0     0.290342007718641d0
O1       0.698270105622955d0     0.250236102495782d0     0.369213011426276d0
O1       0.301995368073695d0     0.249987007385122d0     0.369214717028816d0
Ti1      0.506591869730434d0     0.498236847137215d0     0.363963349435500d0
Ti1      0.005543538029446d0     0.248528489382822d0     0.368212694336031d0
O1       0.498258975190445d0     0.995957599250141d0     0.451619742764758d0
O1       0.999512657621056d0     0.998724239068874d0     0.421357186767543d0
O1       0.195531433570157d0     0.244858801657904d0     0.502822181862774d0
O1       0.803860766424805d0     0.244833224219589d0     0.502664329238047d0
Ti1      0.996647801061689d0     0.494513277106645d0     0.498426458889898d0
Ti1      0.494903598220475d0     0.245560710408877d0     0.497026025574081d0
O1       0.999162093430693d0     0.989658709461470d0     0.582895948907504d0
O1       0.501058147540652d0     0.990449120194101d0     0.556099781825864d0
O1       0.689418723214861d0     0.242697632947145d0     0.642307583117730d0
O1       0.307004089946059d0     0.242745187443134d0     0.642322722585245d0
Ti1      0.497269815562725d0     0.488751794619341d0     0.624844673391323d0
Ti1      0.000045507203010d0     0.218385143051722d0     0.633502631976616d0
O1       0.500093721748991d0     0.000084921243389d0     0.186906639369252d0
O1       0.000447894315398d0     0.992494516467333d0     0.683226294565451d0
O1       0.198268504441574d0     0.250236248865719d0     0.238667392858710d0
O1       0.801993766892314d0     0.249987153755059d0     0.238669098461250d0
Ti1      0.000123603383822d0     0.999897385958537d0     0.238512187198856d0
Ti1      0.500142521004230d0     0.750038178055688d0     0.238522014307695d0
O1       0.000095322930372d0     0.500084774873452d0     0.317452257936818d0
O1       0.500112315057126d0     0.500084209992886d0     0.290342007718641d0
O1       0.698270105622955d0     0.750236102495782d0     0.369213011426276d0
O1       0.301995368073695d0     0.749987007385122d0     0.369214717028816d0
Ti1      0.502560462297386d0     0.998774863227579d0     0.363861939750554d0
Ti1      0.005845411306268d0     0.746208655538163d0     0.368376022709236d0
O1       0.499280225546653d0     0.494623461459326d0     0.451307507835133d0
O1       0.000374183346307d0     0.497826948988521d0     0.422205573070936d0
O1       0.195884141636328d0     0.744602043383048d0     0.502379367544892d0
O1       0.803746690417097d0     0.744604439180568d0     0.501889890739353d0
Ti1      0.996180751655677d0     0.994652121638401d0     0.495900249207123d0
Ti1      0.494917647669990d0     0.745137259277886d0     0.496647950689235d0
O1       0.999333697105194d0     0.492901658135578d0     0.589986572034395d0
O1       0.500059384159236d0     0.493821580109932d0     0.553996871721025d0
O1       0.689264716916979d0     0.733098204036299d0     0.644109021336596d0
O1       0.306679758326258d0     0.736454063490053d0     0.642679297504793d0
Ti1      0.501497651909440d0     0.989212057691105d0     0.627273396233050d0
Ti1      0.006910178933471d0     0.756523883603795d0     0.631989409418043d0
O1       0.500093721748991d0     0.500084921243389d0     0.186906639369252d0
O1       0.198268504441574d0     0.750236248865719d0     0.238667392858710d0
O1       0.801993766892315d0     0.749987153755059d0     0.238669098461250d0
C1       0.079238804582070d0     0.470411376723578d0     0.751820295005798d0
O1       0.973996161398521d0     0.493089929647729d0     0.701195210200035d0
H1       0.138309951407820d0     0.299812356663783d0     0.753983019038212d0
H1       0.828191142096727d0     0.516512357128816d0     0.706571301784098d0
H1       0.201496892138031d0     0.593514701755541d0     0.753135409136079d0
H1       0.972350719129041d0     0.500272319431332d0     0.784070529665244d0
N1       0.572495226980997d0     0.902951054175085d0     0.782124542172555d0
N1       0.635342159783978d0     0.071128119220948d0     0.773213394422728d0
K_POINTS automatic
4 4 1  0 0 0 
