&CONTROL
  calculation='relax',
  prefix='calc',
  pseudo_dir='/storage/coda1/p-amedford6/0/shared/rich_project_chbe-medford/medford-share/data/pseudos_module/espresso/nninc/pbe/van',
  outdir='.',
  tefield=.true.,
  dipfield=.true.,
  tprnfor=.true.,
  disk_io='none',
/
&SYSTEM
  ibrav=0,
  celldm(1)=1.8897261245650618d0,
  nat=55,
  ntyp=5,
  ecutwfc=29.39945797996531d00,
  ecutrho=293.9945797996531d00,
  nbnd=211,
  occupations='smearing',
  smearing='fd',
  degauss=0.007349864494991328d00,
  input_dft='BEEF-vdW',
  edir=3,
  emaxpos=0.988656605113945d00,
  eopreg=0.025d00,
  eamp=0.0d00,
  nosym=.false.,
  noinv=.false.,
  nosym_evc=.false.,
  no_t_rev=.false.,
/
&ELECTRONS
  diagonalization='david',
  conv_thr=7.349864494991327e-08,
  mixing_beta=0.05d00,
  electron_maxstep=1000,
  startingwfc='atomic',
/
&IONS
  ion_dynamics='ipi',
/
&CELL
  cell_dynamics='ipi',
/
CELL_PARAMETERS alat
    6.579727202290808d0     0.000000000000000d0     0.000000000000000d0
   -0.000775132442404d0     5.961596420607155d0     0.000000000000000d0
    0.000000000000000d0    -0.000000000000000d0    25.155947251439940d0
ATOMIC_SPECIES
Ti1 47.867d00 Ti.UPF
O1 15.999d00 O.UPF
C1 12.011d00 C.UPF
H1 1.008d00 H.UPF
N1 14.007d00 N.UPF
ATOMIC_POSITIONS {crystal}
Ti1      0.000123603383822d0     0.499897385958537d0     0.238512187198856d0
Ti1      0.500142521004230d0     0.250038178055688d0     0.238522014307695d0
O1       0.000095322930372d0     0.000084774873452d0     0.317452257936818d0
O1       0.500112315057126d0     0.000084209992886d0     0.290342007718641d0
O1       0.698270105622955d0     0.250236102495782d0     0.369213011426276d0
O1       0.301995368073695d0     0.249987007385122d0     0.369214717028816d0
Ti1      0.496012049345719d0     0.497064958967922d0     0.364030319718338d0
Ti1      0.994976651571001d0     0.250498816225731d0     0.368024892698394d0
O1       0.500245269672512d0     0.001816948437003d0     0.452558434589178d0
O1       0.999523847152147d0     0.000772725927303d0     0.421698705969426d0
O1       0.194042276001208d0     0.253220844507021d0     0.503491561826867d0
O1       0.803513701639394d0     0.253431678370780d0     0.503549981353530d0
Ti1      0.001739901741303d0     0.502956844278599d0     0.496278044148486d0
Ti1      0.503880147020370d0     0.251990979461634d0     0.498098566374484d0
O1       0.997440261995241d0     0.003032546909236d0     0.583308208626083d0
O1       0.497781414584108d0     0.003640657285085d0     0.556439264607923d0
O1       0.690105307853783d0     0.255566738678918d0     0.641891687522483d0
O1       0.305342351020434d0     0.255645560610552d0     0.642436214435625d0
Ti1      0.496879371474235d0     0.504676237977426d0     0.627415541441671d0
Ti1      0.996337867975906d0     0.230477531663018d0     0.632853472401629d0
O1       0.500093721748991d0     0.000084921243389d0     0.186906639369252d0
O1       0.997402715967361d0     0.002501653601771d0     0.684549669760810d0
O1       0.198268504441574d0     0.250236248865719d0     0.238667392858710d0
O1       0.801993766892314d0     0.249987153755059d0     0.238669098461250d0
Ti1      0.000123603383822d0     0.999897385958537d0     0.238512187198856d0
Ti1      0.500142521004230d0     0.750038178055688d0     0.238522014307695d0
O1       0.000095322930372d0     0.500084774873452d0     0.317452257936818d0
O1       0.500112315057126d0     0.500084209992886d0     0.290342007718641d0
O1       0.698270105622955d0     0.750236102495782d0     0.369213011426276d0
O1       0.301995368073695d0     0.749987007385122d0     0.369214717028816d0
Ti1      0.496361497027751d0     0.997270635984492d0     0.363999981399711d0
Ti1      0.995080184338050d0     0.750630356511834d0     0.367983933233592d0
O1       0.499553110247979d0     0.502057343310455d0     0.452406701514501d0
O1       0.999671288316131d0     0.500993291019757d0     0.422389055868526d0
O1       0.194019260842463d0     0.751505914151086d0     0.503529276089254d0
O1       0.803610140255488d0     0.751019289682369d0     0.503634567344081d0
Ti1      0.002825838660726d0     0.002975310861258d0     0.495858885288688d0
Ti1      0.503734056834137d0     0.751488654411374d0     0.498168185279517d0
O1       0.998527248098825d0     0.503369568240696d0     0.596184779347586d0
O1       0.498168294263080d0     0.502971285427211d0     0.555790764016320d0
O1       0.689680216889578d0     0.752952754572602d0     0.642124055435373d0
O1       0.304707139364181d0     0.753214475545190d0     0.641831870630531d0
Ti1      0.497231297359640d0     0.005098775489415d0     0.628106779037549d0
Ti1      0.996664732212652d0     0.777302141593704d0     0.633468523512713d0
O1       0.500093721748991d0     0.500084921243389d0     0.186906639369252d0
O1       0.198268504441574d0     0.750236248865719d0     0.238667392858710d0
O1       0.801993766892315d0     0.749987153755059d0     0.238669098461250d0
C1       0.959907467834038d0     0.429400450325096d0     0.769574704486671d0
O1       0.824649634017155d0     0.245186308679117d0     0.773967557467681d0
H1       0.890876292994314d0     0.574662620397488d0     0.788832826077221d0
H1       0.881144410416874d0     0.124266169312404d0     0.752633549214739d0
H1       0.106875219914815d0     0.395872562089001d0     0.788308380951130d0
H1       0.989735890553341d0     0.476598813284860d0     0.727561497800903d0
N1       0.471547440883768d0     0.662149606966836d0     0.790406570858638d0
N1       0.477118302508136d0     0.587346049374913d0     0.750247933659216d0
K_POINTS automatic
4 4 1  0 0 0 
