&CONTROL
  calculation='relax',
  prefix='calc',
  pseudo_dir='/storage/coda1/p-amedford6/0/shared/rich_project_chbe-medford/medford-share/data/pseudos_module/espresso/nninc/pbe/van',
  outdir='.',
  tefield=.true.,
  dipfield=.true.,
  tprnfor=.true.,
  disk_io='none',
/
&SYSTEM
  ibrav=0,
  celldm(1)=1.8897261245650618d0,
  nat=53,
  ntyp=5,
  ecutwfc=29.39945797996531d00,
  ecutrho=293.9945797996531d00,
  nbnd=207,
  occupations='smearing',
  smearing='fd',
  degauss=0.007349864494991328d00,
  input_dft='BEEF-vdW',
  edir=3,
  emaxpos=0.9737898722663101d00,
  eopreg=0.025d00,
  eamp=0.0d00,
  nosym=.false.,
  noinv=.false.,
  nosym_evc=.false.,
  no_t_rev=.false.,
/
&ELECTRONS
  diagonalization='david',
  conv_thr=7.349864494991327e-08,
  mixing_beta=0.05d00,
  electron_maxstep=1000,
  startingwfc='atomic',
/
&IONS
  ion_dynamics='ipi',
/
&CELL
  cell_dynamics='ipi',
/
CELL_PARAMETERS alat
    6.579727202290808d0     0.000000000000000d0     0.000000000000000d0
   -0.000775132442404d0     5.961596420607155d0     0.000000000000000d0
    0.000000000000000d0    -0.000000000000000d0    25.155947251439940d0
ATOMIC_SPECIES
Ti1 47.867d00 Ti.UPF
O1 15.999d00 O.UPF
N1 14.007d00 N.UPF
C1 12.011d00 C.UPF
H1 1.008d00 H.UPF
ATOMIC_POSITIONS {crystal}
Ti1      0.000123603383822d0     0.499897385958536d0     0.238512187198856d0
Ti1      0.500142521004230d0     0.250038178055688d0     0.238522014307695d0
O1       0.000095322930372d0     0.000084774873452d0     0.317452257936818d0
O1       0.500112315057126d0     0.000084209992886d0     0.290342007718641d0
O1       0.698270105622955d0     0.250236102495782d0     0.369213011426276d0
O1       0.301995368073695d0     0.249987007385122d0     0.369214717028816d0
Ti1      0.500198167309398d0     0.485761668506182d0     0.364758343030283d0
Ti1      0.000261424674789d0     0.248709163236136d0     0.368424970923767d0
O1       0.500346725362288d0     0.997461699883558d0     0.449998413434652d0
O1       0.001882992193933d0     0.999479849154423d0     0.422099495650131d0
O1       0.199177188982176d0     0.245802476071286d0     0.502619554912327d0
O1       0.806279458642131d0     0.248476607937397d0     0.502112329968570d0
Ti1      0.993059659568417d0     0.505581539458633d0     0.504455143482226d0
Ti1      0.489547467517322d0     0.246357532692972d0     0.495762474345028d0
O1       0.995950423483238d0     0.992237697038915d0     0.583198631829165d0
O1       0.505335708042620d0     0.999512531543672d0     0.552083808526320d0
O1       0.690994836786196d0     0.255375219008158d0     0.641064145698189d0
O1       0.311559235657629d0     0.247078334393262d0     0.634192734012614d0
Ti1      0.495334719861230d0     0.501999678146363d0     0.623234744589065d0
Ti1      0.004557987342404d0     0.227337945195583d0     0.627009252476648d0
O1       0.500093721748991d0     0.000084921243389d0     0.186906639369252d0
O1       0.008516214710429d0     0.007485437677328d0     0.684154906974825d0
O1       0.198268504441574d0     0.250236248865719d0     0.238667392858710d0
O1       0.801993766892314d0     0.249987153755059d0     0.238669098461250d0
Ti1      0.000123603383822d0     0.999897385958536d0     0.238512187198856d0
Ti1      0.500142521004230d0     0.750038178055688d0     0.238522014307695d0
O1       0.000095322930372d0     0.500084774873452d0     0.317452257936818d0
O1       0.500112315057126d0     0.500084209992886d0     0.290342007718641d0
O1       0.698270105622955d0     0.750236102495782d0     0.369213011426276d0
O1       0.301995368073695d0     0.749987007385122d0     0.369214717028816d0
Ti1      0.500001644927041d0     0.985370751416071d0     0.364779031055315d0
Ti1      0.000183276761494d0     0.748948988039575d0     0.368476322807288d0
O1       0.499947850944085d0     0.498086857654497d0     0.450025344997998d0
O1       0.001460782485842d0     0.499964783615161d0     0.422656139091726d0
O1       0.198676828062512d0     0.747509575880579d0     0.502491535340866d0
O1       0.805932800457859d0     0.747794190533731d0     0.501987536396602d0
Ti1      0.993056541992243d0     0.003172196287348d0     0.497830232655088d0
Ti1      0.489336127732760d0     0.746853491640669d0     0.495926416693349d0
O1       0.998434076688111d0     0.494973503001538d0     0.586563328762942d0
O1       0.502112632166560d0     0.498321445106140d0     0.551834856524071d0
O1       0.690619448451962d0     0.750368639422600d0     0.635980183835363d0
O1       0.315840172416521d0     0.752959028712198d0     0.637512549542074d0
Ti1      0.503316793865131d0     0.000465993001248d0     0.623680704163108d0
Ti1      0.990048400034158d0     0.754675901188402d0     0.648180938696835d0
O1       0.500093721748991d0     0.500084921243389d0     0.186906639369252d0
O1       0.198268504441574d0     0.750236248865719d0     0.238667392858710d0
O1       0.801993766892315d0     0.749987153755059d0     0.238669098461250d0
N1       0.070325580911749d0     0.500598089875412d0     0.707476839077140d0
C1       0.215400242958824d0     0.494784821157702d0     0.742169500239291d0
H1       0.357100787476934d0     0.443419885701457d0     0.721751351633643d0
N1       0.879976201458163d0     0.595072688259953d0     0.724565195315236d0
H1       0.895793592173714d0     0.671127562464596d0     0.760673105163368d0
H1       0.771073678126060d0     0.474151662174424d0     0.725099482061160d0
K_POINTS automatic
4 4 1  0 0 0 
