&CONTROL
  calculation='relax',
  prefix='calc',
  pseudo_dir='/storage/coda1/p-amedford6/0/shared/rich_project_chbe-medford/medford-share/data/pseudos_module/espresso/nninc/pbe/van',
  outdir='.',
  tefield=.true.,
  dipfield=.true.,
  tprnfor=.true.,
  disk_io='none',
/
&SYSTEM
  ibrav=0,
  celldm(1)=1.8897261245650618d0,
  nat=58,
  ntyp=5,
  ecutwfc=29.39945797996531d00,
  ecutrho=293.9945797996531d00,
  nbnd=212,
  occupations='smearing',
  smearing='fd',
  degauss=0.007349864494991328d00,
  input_dft='BEEF-vdW',
  edir=3,
  emaxpos=0.9941979671256718d00,
  eopreg=0.025d00,
  eamp=0.0d00,
  nosym=.false.,
  noinv=.false.,
  nosym_evc=.false.,
  no_t_rev=.false.,
/
&ELECTRONS
  diagonalization='david',
  conv_thr=7.349864494991327e-08,
  mixing_beta=0.05d00,
  electron_maxstep=1000,
  startingpot='file',
  startingwfc='atomic',
/
&IONS
  ion_dynamics='ipi',
/
&CELL
  cell_dynamics='ipi',
/
CELL_PARAMETERS alat
    6.579727202290808d0     0.000000000000000d0     0.000000000000000d0
   -0.000775132442404d0     5.961596420607155d0     0.000000000000000d0
    0.000000000000000d0    -0.000000000000000d0    25.155947251439940d0
ATOMIC_SPECIES
Ti1 47.867d00 Ti.UPF
O1 15.999d00 O.UPF
N1 14.007d00 N.UPF
C1 12.011d00 C.UPF
H1 1.008d00 H.UPF
ATOMIC_POSITIONS {crystal}
Ti1      0.000123603383822d0     0.499897385958536d0     0.238512187198856d0
Ti1      0.500142521004230d0     0.250038178055688d0     0.238522014307695d0
O1       0.000095322930372d0     0.000084774873452d0     0.317452257936818d0
O1       0.500112315057126d0     0.000084209992886d0     0.290342007718641d0
O1       0.698270105622955d0     0.250236102495782d0     0.369213011426276d0
O1       0.301995368073695d0     0.249987007385122d0     0.369214717028816d0
Ti1      0.500198167309398d0     0.485761668506182d0     0.364758343030283d0
Ti1      0.000261424674789d0     0.248709163236136d0     0.368424970923767d0
O1       0.498115290932091d0     0.995848191562295d0     0.451310362105109d0
O1       0.001882992193933d0     0.999479849154423d0     0.422099495650131d0
O1       0.192380729768781d0     0.247359388312074d0     0.502940479109293d0
O1       0.802814737922710d0     0.246105583041847d0     0.502977034423220d0
Ti1      0.001547462829557d0     0.507363129006512d0     0.499304893531290d0
Ti1      0.497262629579681d0     0.216710822697470d0     0.504547438755604d0
O1       0.998658862053506d0     0.998614281167776d0     0.584740063882450d0
O1       0.495657694451100d0     0.011478126763452d0     0.557414897673670d0
O1       0.689516536694875d0     0.265822746041821d0     0.636758258413620d0
O1       0.303593038090127d0     0.267252004576489d0     0.641638383995881d0
Ti1      0.501771237990837d0     0.509426097084707d0     0.622233913749011d0
Ti1      0.982091273463728d0     0.259037572916175d0     0.626418372401231d0
O1       0.500093721748991d0     0.000084921243389d0     0.186906639369252d0
O1       0.991910681375056d0     0.002417351566641d0     0.687482051566543d0
O1       0.198268504441574d0     0.250236248865719d0     0.238667392858710d0
O1       0.801993766892314d0     0.249987153755059d0     0.238669098461250d0
Ti1      0.000123603383822d0     0.999897385958536d0     0.238512187198856d0
Ti1      0.500142521004230d0     0.750038178055688d0     0.238522014307695d0
O1       0.000095322930372d0     0.500084774873452d0     0.317452257936818d0
O1       0.500112315057126d0     0.500084209992886d0     0.290342007718641d0
O1       0.698270105622955d0     0.750236102495782d0     0.369213011426276d0
O1       0.301995368073695d0     0.749987007385122d0     0.369214717028816d0
Ti1      0.500001644927041d0     0.985370751416071d0     0.364779031055315d0
Ti1      0.000183276761494d0     0.748948988039575d0     0.368476322807288d0
O1       0.498669304511250d0     0.498471266090164d0     0.449587686007610d0
O1       0.001460782485842d0     0.499964783615161d0     0.422656139091726d0
O1       0.193475566538001d0     0.747631036527140d0     0.502373147704687d0
O1       0.802683670723073d0     0.747969790861915d0     0.502211777123317d0
Ti1      0.995822292837312d0     0.005807580120621d0     0.497687732299575d0
Ti1      0.499222268161524d0     0.731763515601854d0     0.493546474592467d0
O1       0.998252802004307d0     0.501650842116902d0     0.584656140832257d0
O1       0.495981131302263d0     0.503073481994914d0     0.552072184098074d0
O1       0.690076622462398d0     0.744194622273984d0     0.640812070332616d0
O1       0.303326314854845d0     0.746216127679395d0     0.641869560339571d0
Ti1      0.484965720665078d0     0.005571555624670d0     0.642959031555280d0
Ti1      0.995958189310350d0     0.784185618487976d0     0.640638031340422d0
O1       0.500093721748991d0     0.500084921243389d0     0.186906639369252d0
O1       0.198268504441574d0     0.750236248865719d0     0.238667392858710d0
O1       0.801993766892315d0     0.749987153755059d0     0.238669098461250d0
N1       0.142177784494683d0     0.399319005156657d0     0.732608775056976d0
N1       0.986446864878564d0     0.482265831934533d0     0.696892758326624d0
C1       0.203520223213894d0     0.552024647122550d0     0.776363811619817d0
H1       0.072027697019006d0     0.584027000076094d0     0.801489294882091d0
H1       0.323212153662876d0     0.469992175139723d0     0.799183730299965d0
H1       0.258699942287900d0     0.707503729122988d0     0.759023000157920d0
H1       0.097749263516044d0     0.242802895189206d0     0.745616775508307d0
H1       0.854057666305101d0     0.470049377131612d0     0.716934328652824d0
H1       0.263021724626739d0     0.359643179408862d0     0.707463167932839d0
O1       0.511755396294823d0     0.022934466887009d0     0.718957549485812d0
H1       0.653788970468346d0     0.999702662289471d0     0.728036191438248d0
K_POINTS automatic
4 4 1  0 0 0 
