&CONTROL
  calculation='relax',
  prefix='calc',
  pseudo_dir='/storage/coda1/p-amedford6/0/shared/rich_project_chbe-medford/medford-share/data/pseudos_module/espresso/nninc/pbe/van',
  outdir='.',
  tefield=.true.,
  dipfield=.true.,
  tprnfor=.true.,
  disk_io='none',
/
&SYSTEM
  ibrav=0,
  celldm(1)=1.8897261245650618d0,
  nat=53,
  ntyp=4,
  ecutwfc=29.39945797996531d00,
  ecutrho=293.9945797996531d00,
  nbnd=206,
  occupations='smearing',
  smearing='fd',
  degauss=0.007349864494991328d00,
  input_dft='BEEF-vdW',
  edir=3,
  emaxpos=0.9836934375516591d00,
  eopreg=0.025d00,
  eamp=0.0d00,
  nosym=.false.,
  noinv=.false.,
  nosym_evc=.false.,
  no_t_rev=.false.,
/
&ELECTRONS
  diagonalization='david',
  conv_thr=7.349864494991327e-08,
  mixing_beta=0.05d00,
  electron_maxstep=1000,
  startingwfc='atomic',
/
&IONS
  ion_dynamics='ipi',
/
&CELL
  cell_dynamics='ipi',
/
CELL_PARAMETERS alat
    6.579727202290808d0     0.000000000000000d0     0.000000000000000d0
   -0.000775132442404d0     5.961596420607155d0     0.000000000000000d0
    0.000000000000000d0    -0.000000000000000d0    25.155947251439940d0
ATOMIC_SPECIES
Ti1 47.867d00 Ti.UPF
O1 15.999d00 O.UPF
C1 12.011d00 C.UPF
H1 1.008d00 H.UPF
ATOMIC_POSITIONS {crystal}
Ti1      0.000123603383822d0     0.499897385958537d0     0.238512187198856d0
Ti1      0.500142521004230d0     0.250038178055688d0     0.238522014307695d0
O1       0.000095322930372d0     0.000084774873452d0     0.317452257936818d0
O1       0.500112315057126d0     0.000084209992886d0     0.290342007718641d0
O1       0.698270105622955d0     0.250236102495782d0     0.369213011426276d0
O1       0.301995368073695d0     0.249987007385122d0     0.369214717028816d0
Ti1      0.506012766269030d0     0.499971127899940d0     0.363958837451509d0
Ti1      0.006687159355937d0     0.248707040687304d0     0.368476273051574d0
O1       0.500497294683241d0     0.004938799266883d0     0.452577587200175d0
O1       0.999167298290369d0     0.001043564729522d0     0.422030900842533d0
O1       0.197272956929618d0     0.254495698955145d0     0.503453973249279d0
O1       0.805643733301247d0     0.253566512211043d0     0.504060483266428d0
Ti1      0.995110554492331d0     0.503391471162274d0     0.499134179687142d0
Ti1      0.492381780752319d0     0.256389597568813d0     0.498202411833984d0
O1       0.006738365795862d0     0.006559475253984d0     0.584470442300610d0
O1       0.500675744969665d0     0.004687600923730d0     0.557714972423693d0
O1       0.700739131070611d0     0.257523509090247d0     0.644317363211645d0
O1       0.317944909329509d0     0.258786989050005d0     0.643754495318900d0
Ti1      0.511865861270977d0     0.502990387449982d0     0.626144862500603d0
Ti1      0.009121005779074d0     0.226999506943962d0     0.638097252596249d0
O1       0.500093721748991d0     0.000084921243389d0     0.186906639369252d0
O1       0.010501121999362d0     0.002985813208196d0     0.685359332623300d0
O1       0.198268504441574d0     0.250236248865719d0     0.238667392858710d0
O1       0.801993766892314d0     0.249987153755059d0     0.238669098461250d0
Ti1      0.000123603383822d0     0.999897385958537d0     0.238512187198856d0
Ti1      0.500142521004230d0     0.750038178055688d0     0.238522014307695d0
O1       0.000095322930372d0     0.500084774873452d0     0.317452257936818d0
O1       0.500112315057126d0     0.500084209992886d0     0.290342007718641d0
O1       0.698270105622955d0     0.750236102495782d0     0.369213011426276d0
O1       0.301995368073695d0     0.749987007385122d0     0.369214717028816d0
Ti1      0.503836353302561d0     0.000327225881858d0     0.363921569503994d0
Ti1      0.006645651504108d0     0.747163735940294d0     0.368909571984792d0
O1       0.500042715835993d0     0.505084241884392d0     0.452512239374641d0
O1       0.998392091138341d0     0.501413848005766d0     0.423051846065583d0
O1       0.197545342429147d0     0.754896969098165d0     0.503460260712122d0
O1       0.805162174674813d0     0.755544992770045d0     0.504013647288502d0
Ti1      0.994565729486124d0     0.004179538592789d0     0.496707713871979d0
Ti1      0.492023600352988d0     0.755639912991542d0     0.497871168402009d0
O1       0.006874644995766d0     0.507580621916176d0     0.590603747537068d0
O1       0.504484635036408d0     0.504949679880201d0     0.555141848344263d0
O1       0.702254474941298d0     0.752460179079800d0     0.642879015947908d0
O1       0.319607326175396d0     0.746687132432288d0     0.645505899384861d0
Ti1      0.504632273869425d0     0.005127297382480d0     0.628778183514476d0
Ti1      0.997610792558961d0     0.765719381312896d0     0.630557796966800d0
O1       0.500093721748991d0     0.500084921243389d0     0.186906639369252d0
O1       0.198268504441574d0     0.750236248865719d0     0.238667392858710d0
O1       0.801993766892315d0     0.749987153755059d0     0.238669098461250d0
C1       0.962070173489378d0     0.540529097628055d0     0.755213665032425d0
O1       0.042867984974404d0     0.515215189578446d0     0.701863176918105d0
H1       0.797889885112165d0     0.524061242760561d0     0.752041019619013d0
H1       0.187850109444756d0     0.555347584556152d0     0.701348761073467d0
H1       0.023474750554275d0     0.407656048779544d0     0.780480235734066d0
H1       0.002228674920377d0     0.706559395593616d0     0.770177803860256d0
K_POINTS automatic
4 4 1  0 0 0 
