&CONTROL
  calculation='relax',
  prefix='calc',
  pseudo_dir='/storage/coda1/p-amedford6/0/shared/rich_project_chbe-medford/medford-share/data/pseudos_module/espresso/nninc/pbe/van',
  outdir='.',
  tefield=.true.,
  dipfield=.true.,
  tprnfor=.true.,
  disk_io='none',
/
&SYSTEM
  ibrav=0,
  celldm(1)=1.8897261245650618d0,
  nat=52,
  ntyp=5,
  ecutwfc=29.39945797996531d00,
  ecutrho=293.9945797996531d00,
  nbnd=205,
  occupations='smearing',
  smearing='fd',
  degauss=0.007349864494991328d00,
  input_dft='BEEF-vdW',
  edir=3,
  emaxpos=0.9832033013818962d00,
  eopreg=0.025d00,
  eamp=0.0d00,
  nosym=.false.,
  noinv=.false.,
  nosym_evc=.false.,
  no_t_rev=.false.,
/
&ELECTRONS
  diagonalization='david',
  conv_thr=7.349864494991327e-08,
  mixing_beta=0.05d00,
  electron_maxstep=1000,
  startingwfc='atomic',
/
&IONS
  ion_dynamics='ipi',
/
&CELL
  cell_dynamics='ipi',
/
CELL_PARAMETERS alat
    6.579727202290808d0     0.000000000000000d0     0.000000000000000d0
   -0.000775132442404d0     5.961596420607155d0     0.000000000000000d0
    0.000000000000000d0    -0.000000000000000d0    25.155947251439940d0
ATOMIC_SPECIES
Ti1 47.867d00 Ti.UPF
O1 15.999d00 O.UPF
N1 14.007d00 N.UPF
C1 12.011d00 C.UPF
H1 1.008d00 H.UPF
ATOMIC_POSITIONS {crystal}
Ti1      0.000123603383822d0     0.499897385958536d0     0.238512187198856d0
Ti1      0.500142521004230d0     0.250038178055688d0     0.238522014307695d0
O1       0.000095322930372d0     0.000084774873452d0     0.317452257936818d0
O1       0.500112315057126d0     0.000084209992886d0     0.290342007718641d0
O1       0.698270105622955d0     0.250236102495782d0     0.369213011426276d0
O1       0.301995368073695d0     0.249987007385122d0     0.369214717028816d0
Ti1      0.500198167309398d0     0.485761668506182d0     0.364758343030283d0
Ti1      0.000261424674789d0     0.248709163236136d0     0.368424970923767d0
O1       0.501852060122101d0     0.998079998591586d0     0.451043675179177d0
O1       0.001882992193933d0     0.999479849154423d0     0.422099495650131d0
O1       0.198302718262116d0     0.249316584347356d0     0.502383705790866d0
O1       0.805157862639937d0     0.251147989838560d0     0.501927941353121d0
Ti1      0.006340036170914d0     0.494275658513333d0     0.498975657285302d0
Ti1      0.506696698668797d0     0.248241961118158d0     0.496489905404125d0
O1       0.998942409211250d0     0.005185200757170d0     0.582527674000836d0
O1       0.505110742217467d0     0.998986443341768d0     0.554837501545144d0
O1       0.690628637076231d0     0.251183750274351d0     0.640407462011099d0
O1       0.310914780731710d0     0.249145005932860d0     0.641291794925265d0
Ti1      0.494873649617037d0     0.497114149680407d0     0.624194983865883d0
Ti1      0.002302798412428d0     0.255930423348591d0     0.632734635515807d0
O1       0.500093721748991d0     0.000084921243389d0     0.186906639369252d0
O1       0.999891600042836d0     0.983238777837612d0     0.684613869889521d0
O1       0.198268504441574d0     0.250236248865719d0     0.238667392858710d0
O1       0.801993766892314d0     0.249987153755059d0     0.238669098461250d0
Ti1      0.000123603383822d0     0.999897385958536d0     0.238512187198856d0
Ti1      0.500142521004230d0     0.750038178055688d0     0.238522014307695d0
O1       0.000095322930372d0     0.500084774873452d0     0.317452257936818d0
O1       0.500112315057126d0     0.500084209992886d0     0.290342007718641d0
O1       0.698270105622955d0     0.750236102495782d0     0.369213011426276d0
O1       0.301995368073695d0     0.749987007385122d0     0.369214717028816d0
Ti1      0.500001644927041d0     0.985370751416071d0     0.364779031055315d0
Ti1      0.000183276761494d0     0.748948988039575d0     0.368476322807288d0
O1       0.500384031246953d0     0.499554787425288d0     0.450773937116888d0
O1       0.001460782485842d0     0.499964783615161d0     0.422656139091726d0
O1       0.197709072782796d0     0.750392008314390d0     0.503133939024358d0
O1       0.804496365577219d0     0.749376997860785d0     0.502217843286959d0
Ti1      0.003639272770245d0     0.994139087770701d0     0.497452232944232d0
Ti1      0.506662712548281d0     0.748309766903859d0     0.496776799382282d0
O1       0.000169462594132d0     0.495735007632553d0     0.587745648078132d0
O1       0.500997789586910d0     0.498689260302669d0     0.553308114915214d0
O1       0.690119446624349d0     0.741893790955114d0     0.642718675068000d0
O1       0.310032820389707d0     0.746602708829152d0     0.639865591581943d0
Ti1      0.507190446960779d0     0.998265727219322d0     0.626290998313234d0
Ti1      0.005600030892458d0     0.785395102062048d0     0.633175178830306d0
O1       0.500093721748991d0     0.500084921243389d0     0.186906639369252d0
O1       0.198268504441574d0     0.750236248865719d0     0.238667392858710d0
O1       0.801993766892315d0     0.749987153755059d0     0.238669098461250d0
N1       0.833251253583590d0     0.501509618282737d0     0.740174927684869d0
C1       0.987785499943940d0     0.415144947277392d0     0.713872795733313d0
H1       0.090262086672755d0     0.320150697852865d0     0.739668424626493d0
H1       0.731732797865355d0     0.599154662202517d0     0.720296333180594d0
H1       0.806519547966372d0     0.475282867228094d0     0.779499963394540d0
K_POINTS automatic
4 4 1  0 0 0 
