&CONTROL
  calculation='relax',
  prefix='calc',
  pseudo_dir='/storage/coda1/p-amedford6/0/shared/rich_project_chbe-medford/medford-share/data/pseudos_module/espresso/nninc/pbe/van',
  outdir='.',
  tefield=.true.,
  dipfield=.true.,
  tprnfor=.true.,
  disk_io='none',
/
&SYSTEM
  ibrav=0,
  celldm(1)=1.8897261245650618d0,
  nat=53,
  ntyp=4,
  ecutwfc=29.39945797996531d00,
  ecutrho=293.9945797996531d00,
  nbnd=206,
  occupations='smearing',
  smearing='fd',
  degauss=0.007349864494991328d00,
  input_dft='BEEF-vdW',
  edir=3,
  emaxpos=0.9677461229268065d00,
  eopreg=0.025d00,
  eamp=0.0d00,
  nosym=.false.,
  noinv=.false.,
  nosym_evc=.false.,
  no_t_rev=.false.,
/
&ELECTRONS
  diagonalization='david',
  conv_thr=7.349864494991327e-08,
  mixing_beta=0.05d00,
  electron_maxstep=1000,
  startingwfc='atomic',
/
&IONS
  ion_dynamics='ipi',
/
&CELL
  cell_dynamics='ipi',
/
CELL_PARAMETERS alat
    6.579727202290808d0     0.000000000000000d0     0.000000000000000d0
   -0.000775132442404d0     5.961596420607155d0     0.000000000000000d0
    0.000000000000000d0    -0.000000000000000d0    25.155947251439940d0
ATOMIC_SPECIES
Ti1 47.867d00 Ti.UPF
O1 15.999d00 O.UPF
H1 1.008d00 H.UPF
N1 14.007d00 N.UPF
ATOMIC_POSITIONS {crystal}
Ti1      0.000123603383822d0     0.499897385958536d0     0.238512187198856d0
Ti1      0.500142521004230d0     0.250038178055688d0     0.238522014307695d0
O1       0.000095322930372d0     0.000084774873452d0     0.317452257936818d0
O1       0.500112315057126d0     0.000084209992886d0     0.290342007718641d0
O1       0.698270105622955d0     0.250236102495782d0     0.369213011426276d0
O1       0.301995368073695d0     0.249987007385122d0     0.369214717028816d0
Ti1      0.500198167309398d0     0.485761668506182d0     0.364758343030283d0
Ti1      0.000261424674789d0     0.248709163236136d0     0.368424970923767d0
O1       0.501986883314628d0     0.999488429476003d0     0.451535967072418d0
O1       0.001882992193933d0     0.999479849154423d0     0.422099495650131d0
O1       0.198965386704829d0     0.250052347087243d0     0.503450754061922d0
O1       0.806512131442017d0     0.250063617922437d0     0.503305691947102d0
Ti1      0.003476695997819d0     0.498335531324845d0     0.497699960425412d0
Ti1      0.504458813771577d0     0.250043140627215d0     0.497383854063051d0
O1       0.002378356722434d0     0.998157986567595d0     0.583884196579668d0
O1       0.503573217773550d0     0.000174352721767d0     0.556145176419550d0
O1       0.691239882137726d0     0.251733948313988d0     0.644320687140900d0
O1       0.310485347782553d0     0.252992311633247d0     0.643749674422311d0
Ti1      0.502092546585711d0     0.499488048084863d0     0.625698550875262d0
Ti1      0.008632852990562d0     0.225924080533809d0     0.635478173515317d0
O1       0.500093721748991d0     0.000084921243389d0     0.186906639369252d0
O1       0.002952475348929d0     0.999017020327900d0     0.685122984300771d0
O1       0.198268504441574d0     0.250236248865719d0     0.238667392858710d0
O1       0.801993766892314d0     0.249987153755059d0     0.238669098461250d0
Ti1      0.000123603383822d0     0.999897385958536d0     0.238512187198856d0
Ti1      0.500142521004230d0     0.750038178055688d0     0.238522014307695d0
O1       0.000095322930372d0     0.500084774873452d0     0.317452257936818d0
O1       0.500112315057126d0     0.500084209992886d0     0.290342007718641d0
O1       0.698270105622955d0     0.750236102495782d0     0.369213011426276d0
O1       0.301995368073695d0     0.749987007385122d0     0.369214717028816d0
Ti1      0.500001644927041d0     0.985370751416071d0     0.364779031055315d0
Ti1      0.000183276761494d0     0.748948988039575d0     0.368476322807288d0
O1       0.502269464458366d0     0.499994695530792d0     0.451326881351452d0
O1       0.001460782485842d0     0.499964783615161d0     0.422656139091726d0
O1       0.198889225125148d0     0.748231851826030d0     0.503645131194378d0
O1       0.806433132591330d0     0.748301305682093d0     0.503526178946267d0
Ti1      0.004165145596034d0     0.998374103419300d0     0.497401655161892d0
Ti1      0.503985449836911d0     0.749674525109106d0     0.497598180196503d0
O1       0.001825294822697d0     0.498559190956262d0     0.594072812100574d0
O1       0.502699316603659d0     0.499441588012653d0     0.554631883236269d0
O1       0.693774926173616d0     0.745990380093657d0     0.643966736646924d0
O1       0.313408284842305d0     0.747066224203121d0     0.643893483703203d0
Ti1      0.502549677284095d0     0.999821109316898d0     0.627548205450045d0
Ti1      0.995539276124372d0     0.764982155202768d0     0.633960494280197d0
O1       0.500093721748991d0     0.500084921243389d0     0.186906639369252d0
O1       0.198268504441574d0     0.750236248865719d0     0.238667392858710d0
O1       0.801993766892315d0     0.749987153755059d0     0.238669098461250d0
H1       0.941117148026913d0     0.712591908021795d0     0.744560413220910d0
H1       0.171896655526587d0     0.644262216765062d0     0.722332822435936d0
N1       0.020141808953799d0     0.615905244774231d0     0.718205180142865d0
N1       0.978258983332104d0     0.384547321709078d0     0.719345909041076d0
H1       0.825302771335055d0     0.357956731173779d0     0.721167876549697d0
H1       0.049545743300479d0     0.295593836066431d0     0.748585606484360d0
K_POINTS automatic
4 4 1  0 0 0 
