&CONTROL
  calculation='relax',
  prefix='calc',
  pseudo_dir='/storage/coda1/p-amedford6/0/shared/rich_project_chbe-medford/medford-share/data/pseudos_module/espresso/nninc/pbe/van',
  outdir='.',
  tefield=.true.,
  dipfield=.true.,
  tprnfor=.true.,
  disk_io='none',
/
&SYSTEM
  ibrav=0,
  celldm(1)=1.8897261245650618d0,
  nat=51,
  ntyp=4,
  ecutwfc=29.39945797996531d00,
  ecutrho=293.9945797996531d00,
  nbnd=205,
  occupations='smearing',
  smearing='fd',
  degauss=0.007349864494991328d00,
  input_dft='BEEF-vdW',
  edir=3,
  emaxpos=0.9740551834656928d00,
  eopreg=0.025d00,
  eamp=0.0d00,
  nosym=.false.,
  noinv=.false.,
  nosym_evc=.false.,
  no_t_rev=.false.,
/
&ELECTRONS
  diagonalization='david',
  conv_thr=7.349864494991327e-08,
  mixing_beta=0.05d00,
  electron_maxstep=1000,
  startingpot='file',
  startingwfc='atomic',
/
&IONS
  ion_dynamics='ipi',
/
&CELL
  cell_dynamics='ipi',
/
CELL_PARAMETERS alat
    6.579727202290808d0     0.000000000000000d0     0.000000000000000d0
   -0.000775132442404d0     5.961596420607155d0     0.000000000000000d0
    0.000000000000000d0    -0.000000000000000d0    25.155947251439940d0
ATOMIC_SPECIES
Ti1 47.867d00 Ti.UPF
O1 15.999d00 O.UPF
C1 12.011d00 C.UPF
H1 1.008d00 H.UPF
ATOMIC_POSITIONS {crystal}
Ti1      0.000123603383822d0     0.499897385958537d0     0.238512187198856d0
Ti1      0.500142521004230d0     0.250038178055688d0     0.238522014307695d0
O1       0.000095322930372d0     0.000084774873452d0     0.317452257936818d0
O1       0.500112315057126d0     0.000084209992886d0     0.290342007718641d0
O1       0.698270105622955d0     0.250236102495782d0     0.369213011426276d0
O1       0.301995368073695d0     0.249987007385122d0     0.369214717028816d0
Ti1      0.504477467697104d0     0.503518090256393d0     0.363989682237048d0
Ti1      0.005298291490125d0     0.251104882656153d0     0.368266664609548d0
O1       0.502652088071173d0     0.001480601346187d0     0.452346787400537d0
O1       0.000952523853609d0     0.000502094007953d0     0.421641908726302d0
O1       0.198559249307969d0     0.251846420841955d0     0.503036212952366d0
O1       0.806859505234517d0     0.251425835893226d0     0.503552891915441d0
Ti1      0.003311366217653d0     0.501904008149801d0     0.497935230461850d0
Ti1      0.503045833950232d0     0.251776821280127d0     0.497789795172938d0
O1       0.006453546537182d0     0.001266242633617d0     0.583232874543461d0
O1       0.501618357632489d0     0.001233382880005d0     0.556948710499722d0
O1       0.698421088551699d0     0.254894483937561d0     0.642442298355862d0
O1       0.314534041976100d0     0.256604123120332d0     0.643726216985174d0
Ti1      0.507021537437445d0     0.502206881856445d0     0.626095786343325d0
Ti1      0.005124297095019d0     0.229453375029393d0     0.633534195786542d0
O1       0.500093721748991d0     0.000084921243389d0     0.186906639369252d0
O1       0.005366160130863d0     0.002572296497008d0     0.683429807949731d0
O1       0.198268504441574d0     0.250236248865719d0     0.238667392858710d0
O1       0.801993766892314d0     0.249987153755059d0     0.238669098461250d0
Ti1      0.000123603383822d0     0.999897385958537d0     0.238512187198856d0
Ti1      0.500142521004230d0     0.750038178055688d0     0.238522014307695d0
O1       0.000095322930372d0     0.500084774873452d0     0.317452257936818d0
O1       0.500112315057126d0     0.500084209992886d0     0.290342007718641d0
O1       0.698270105622955d0     0.750236102495782d0     0.369213011426276d0
O1       0.301995368073695d0     0.749987007385122d0     0.369214717028816d0
Ti1      0.503894576960016d0     0.003614293630302d0     0.363931596357557d0
Ti1      0.005317346798711d0     0.749658042072134d0     0.368280022090040d0
O1       0.502792061143092d0     0.501070434604610d0     0.452032564915866d0
O1       0.000951801982830d0     0.500414553337903d0     0.422535730250610d0
O1       0.198557632645309d0     0.750713323349498d0     0.502881289612331d0
O1       0.806881391511465d0     0.751101504988169d0     0.503421502498311d0
Ti1      0.002601389164685d0     0.002150663845232d0     0.496131834070617d0
Ti1      0.502980403632446d0     0.751217224743945d0     0.497671411940633d0
O1       0.006669751219151d0     0.502519074498563d0     0.592831875520281d0
O1       0.502960876168782d0     0.501902128645426d0     0.555018161397487d0
O1       0.698467171424791d0     0.749287255414830d0     0.642600018411567d0
O1       0.314522380484037d0     0.747097131775544d0     0.644306298577154d0
Ti1      0.503974984695683d0     0.002384508203328d0     0.628395308734873d0
Ti1      0.003421538494291d0     0.772214401689943d0     0.633060257278530d0
O1       0.500093721748991d0     0.500084921243389d0     0.186906639369252d0
O1       0.198268504441574d0     0.750236248865719d0     0.238667392858710d0
O1       0.801993766892315d0     0.749987153755059d0     0.238669098461250d0
C1       0.919904269472300d0     0.494267408677380d0     0.761203727562133d0
O1       0.029215026335600d0     0.504015906994499d0     0.716335837178202d0
H1       0.762286912046099d0     0.477998085820652d0     0.745876449620145d0
H1       0.173226849957998d0     0.518965140487913d0     0.725404885803208d0
K_POINTS automatic
4 4 1  0 0 0 
