&CONTROL
  calculation='relax',
  prefix='calc',
  pseudo_dir='/storage/coda1/p-amedford6/0/shared/rich_project_chbe-medford/medford-share/data/pseudos_module/espresso/nninc/pbe/van',
  outdir='.',
  tefield=.true.,
  dipfield=.true.,
  tprnfor=.true.,
  disk_io='none',
/
&SYSTEM
  ibrav=0,
  celldm(1)=1.8897261245650618d0,
  nat=48,
  ntyp=3,
  ecutwfc=29.39945797996531d00,
  ecutrho=293.9945797996531d00,
  nbnd=201,
  occupations='smearing',
  smearing='fd',
  degauss=0.007349864494991328d00,
  nspin=2,
  starting_magnetization(1)=0.0d00,
  starting_magnetization(2)=0.0d00,
  starting_magnetization(3)=0.025d00,
  input_dft='BEEF-vdW',
  edir=3,
  emaxpos=0.9411372809154972d00,
  eopreg=0.025d00,
  eamp=0.0d00,
  nosym=.false.,
  noinv=.false.,
  nosym_evc=.false.,
  no_t_rev=.false.,
/
&ELECTRONS
  diagonalization='david',
  conv_thr=7.349864494991327e-08,
  mixing_beta=0.05d00,
  electron_maxstep=1000,
  startingwfc='atomic',
/
&IONS
  ion_dynamics='ipi',
/
&CELL
  cell_dynamics='ipi',
/
CELL_PARAMETERS alat
    6.579727202290808d0     0.000000000000000d0     0.000000000000000d0
   -0.000775132442404d0     5.961596420607155d0     0.000000000000000d0
    0.000000000000000d0    -0.000000000000000d0    25.155947251439940d0
ATOMIC_SPECIES
Ti1 47.867d00 Ti.UPF
O1 15.999d00 O.UPF
C1 12.011d00 C.UPF
ATOMIC_POSITIONS {crystal}
Ti1      0.000123603383822d0     0.499897385958537d0     0.238512187198856d0
Ti1      0.500142521004230d0     0.250038178055688d0     0.238522014307695d0
O1       0.000095322930372d0     0.000084774873452d0     0.317452257936818d0
O1       0.500112315057126d0     0.000084209992886d0     0.290342007718641d0
O1       0.698270105622955d0     0.250236102495782d0     0.369213011426276d0
O1       0.301995368073695d0     0.249987007385122d0     0.369214717028816d0
Ti1      0.499450736720182d0     0.485073601115109d0     0.364343259571464d0
Ti1      0.999870299283747d0     0.249460087236412d0     0.372974014050398d0
O1       0.498399720417868d0     0.999358630532506d0     0.452188144209388d0
O1       0.999625612699552d0     0.999904625684423d0     0.419721185018752d0
O1       0.194058314742195d0     0.251018761625507d0     0.502796338298603d0
O1       0.798833472499071d0     0.250759448732479d0     0.502236866097472d0
Ti1      0.010910572635624d0     0.500005956991086d0     0.510916563605731d0
Ti1      0.514710198078992d0     0.249661364275676d0     0.497219357515739d0
O1       0.998461201510016d0     0.000001052847567d0     0.580800994377816d0
O1       0.498849798622042d0     0.000003033755610d0     0.556448865231840d0
O1       0.687979270863425d0     0.253222937274725d0     0.641794269347038d0
O1       0.310026640582061d0     0.252975733520762d0     0.641838595817004d0
Ti1      0.498467847163304d0     0.500084256418780d0     0.626562085310665d0
Ti1      0.998682401267943d0     0.243876259164483d0     0.642254178042769d0
O1       0.500093721748991d0     0.000084921243389d0     0.186906639369252d0
O1       0.999461829149407d0     0.000000924912151d0     0.685271166075540d0
O1       0.198268504441574d0     0.250236248865719d0     0.238667392858710d0
O1       0.801993766892314d0     0.249987153755059d0     0.238669098461250d0
Ti1      0.000123603383822d0     0.999897385958537d0     0.238512187198856d0
Ti1      0.500142521004230d0     0.750038178055688d0     0.238522014307695d0
O1       0.000095322930372d0     0.500084774873452d0     0.317452257936818d0
O1       0.500112315057126d0     0.500084209992886d0     0.290342007718641d0
O1       0.698270105622955d0     0.750236102495782d0     0.369213011426276d0
O1       0.301995368073695d0     0.749987007385122d0     0.369214717028816d0
Ti1      0.499936300215820d0     0.985088999805986d0     0.364376523021179d0
Ti1      0.999986014464426d0     0.748299999261843d0     0.372979352098407d0
O1       0.498861736712821d0     0.499340888632015d0     0.451762767299804d0
O1       0.999691156711316d0     0.499898183754222d0     0.419505288931479d0
O1       0.194062077852101d0     0.748841961037140d0     0.502795116732610d0
O1       0.798830294885233d0     0.748887363850233d0     0.502240733890785d0
Ti1      0.010018607431277d0     0.000005600040792d0     0.508863591278629d0
Ti1      0.514706554849546d0     0.748224415569095d0     0.497200111318452d0
O1       0.999936215624298d0     0.500017230935382d0     0.583019403222806d0
O1       0.498382600455949d0     0.499939219650547d0     0.555094669032905d0
O1       0.687973215213212d0     0.746958950360947d0     0.641788897148617d0
O1       0.310026361848893d0     0.747157644597975d0     0.641837364081268d0
Ti1      0.498919784151892d0     0.000107286659771d0     0.627790256594754d0
Ti1      0.998633988101661d0     0.756058570689807d0     0.642244925445632d0
O1       0.500093721748991d0     0.500084921243389d0     0.186906639369252d0
C1       0.998042213733392d0     0.500023407617848d0     0.695367922461742d0
O1       0.198268504441574d0     0.750236248865719d0     0.238667392858710d0
O1       0.801993766892315d0     0.749987153755059d0     0.238669098461250d0
K_POINTS automatic
4 4 1  0 0 0 
