&CONTROL
  calculation='relax',
  prefix='calc',
  pseudo_dir='/storage/coda1/p-amedford6/0/shared/rich_project_chbe-medford/medford-share/data/pseudos_module/espresso/nninc/pbe/van',
  outdir='.',
  tefield=.true.,
  dipfield=.true.,
  tprnfor=.true.,
  disk_io='none',
/
&SYSTEM
  ibrav=0,
  celldm(1)=1.8897261245650618d0,
  nat=53,
  ntyp=4,
  ecutwfc=29.39945797996531d00,
  ecutrho=293.9945797996531d00,
  nbnd=206,
  occupations='smearing',
  smearing='fd',
  degauss=0.007349864494991328d00,
  input_dft='BEEF-vdW',
  edir=3,
  emaxpos=0.983000132357305d00,
  eopreg=0.025d00,
  eamp=0.0d00,
  nosym=.false.,
  noinv=.false.,
  nosym_evc=.false.,
  no_t_rev=.false.,
/
&ELECTRONS
  diagonalization='david',
  conv_thr=7.349864494991327e-08,
  mixing_beta=0.05d00,
  electron_maxstep=1000,
  startingpot='file',
  startingwfc='atomic',
/
&IONS
  ion_dynamics='ipi',
/
&CELL
  cell_dynamics='ipi',
/
CELL_PARAMETERS alat
    6.579727202290808d0     0.000000000000000d0     0.000000000000000d0
   -0.000775132442404d0     5.961596420607155d0     0.000000000000000d0
    0.000000000000000d0    -0.000000000000000d0    25.155947251439940d0
ATOMIC_SPECIES
Ti1 47.867d00 Ti.UPF
O1 15.999d00 O.UPF
C1 12.011d00 C.UPF
H1 1.008d00 H.UPF
ATOMIC_POSITIONS {crystal}
Ti1      0.000123603383822d0     0.499897385958537d0     0.238512187198856d0
Ti1      0.500142521004230d0     0.250038178055688d0     0.238522014307695d0
O1       0.000095322930372d0     0.000084774873452d0     0.317452257936818d0
O1       0.500112315057126d0     0.000084209992886d0     0.290342007718641d0
O1       0.698270105622955d0     0.250236102495782d0     0.369213011426276d0
O1       0.301995368073695d0     0.249987007385122d0     0.369214717028816d0
Ti1      0.504406030794579d0     0.504975580934094d0     0.363944347199197d0
Ti1      0.005295589035666d0     0.254058100634697d0     0.368604105102549d0
O1       0.506459894247633d0     0.001253672227770d0     0.451695018461137d0
O1       0.001096541016931d0     0.000376268169518d0     0.421499451318880d0
O1       0.202695414800778d0     0.251789147521619d0     0.502117454785892d0
O1       0.810437843616201d0     0.251060525204537d0     0.503503495244987d0
Ti1      0.006123572102916d0     0.504047775660413d0     0.498486623803379d0
Ti1      0.505489546738773d0     0.251719212541187d0     0.496968799839055d0
O1       0.014562756783791d0     0.001828622065945d0     0.583485086914090d0
O1       0.504723872024939d0     0.001099205875370d0     0.556318216859654d0
O1       0.706294776502706d0     0.255555573812440d0     0.642080085015311d0
O1       0.323367130703157d0     0.256451029481407d0     0.643439349665512d0
Ti1      0.514773800253160d0     0.501076137795997d0     0.624848865824045d0
Ti1      0.012965666099014d0     0.225333740953914d0     0.635884545385106d0
O1       0.500093721748991d0     0.000084921243389d0     0.186906639369252d0
O1       0.013097921715011d0     0.002620187095847d0     0.684137767029979d0
O1       0.198268504441574d0     0.250236248865719d0     0.238667392858710d0
O1       0.801993766892314d0     0.249987153755059d0     0.238669098461250d0
Ti1      0.000123603383822d0     0.999897385958537d0     0.238512187198856d0
Ti1      0.500142521004230d0     0.750038178055688d0     0.238522014307695d0
O1       0.000095322930372d0     0.500084774873452d0     0.317452257936818d0
O1       0.500112315057126d0     0.500084209992886d0     0.290342007718641d0
O1       0.698270105622955d0     0.750236102495782d0     0.369213011426276d0
O1       0.301995368073695d0     0.749987007385122d0     0.369214717028816d0
Ti1      0.503979077356654d0     0.005249919969599d0     0.363865408687475d0
Ti1      0.005286838794354d0     0.751891113445242d0     0.368246575035029d0
O1       0.506112852775925d0     0.501108771356311d0     0.451313051835395d0
O1       0.001146489413510d0     0.500322847524002d0     0.422363062691485d0
O1       0.202828797852411d0     0.751154893553713d0     0.502081952162300d0
O1       0.810401411413804d0     0.751535995548612d0     0.503475189069633d0
Ti1      0.004833602914212d0     0.004493082414866d0     0.496202050021398d0
Ti1      0.505322253638969d0     0.751345120288309d0     0.496887057415472d0
O1       0.015530609020855d0     0.503875925891876d0     0.590187243703397d0
O1       0.507160129416511d0     0.501277056597001d0     0.554028068657801d0
O1       0.707100058879563d0     0.748984866183583d0     0.641466245307265d0
O1       0.324257872559490d0     0.745906148671904d0     0.644737946740394d0
Ti1      0.509603082272099d0     0.001949519771669d0     0.627477450191428d0
Ti1      0.006486931345687d0     0.763275702194068d0     0.630712036282276d0
O1       0.500093721748991d0     0.500084921243389d0     0.186906639369252d0
O1       0.198268504441574d0     0.750236248865719d0     0.238667392858710d0
O1       0.801993766892315d0     0.749987153755059d0     0.238669098461250d0
C1       0.919125370091171d0     0.523010345067627d0     0.751472283599095d0
O1       0.035558465792427d0     0.510494508059042d0     0.702397839226888d0
H1       0.764294528029163d0     0.485927011705755d0     0.741010055705905d0
H1       0.178759662400008d0     0.542615538023046d0     0.708733079110331d0
H1       0.977525291559627d0     0.396948700253762d0     0.779093625345357d0
H1       0.932536211821848d0     0.691741900768050d0     0.767737627567855d0
K_POINTS automatic
4 4 1  0 0 0 
