&CONTROL
  calculation='relax',
  prefix='calc',
  pseudo_dir='/storage/coda1/p-amedford6/0/shared/rich_project_chbe-medford/medford-share/data/pseudos_module/espresso/nninc/pbe/van',
  outdir='.',
  tefield=.true.,
  dipfield=.true.,
  tprnfor=.true.,
  disk_io='none',
/
&SYSTEM
  ibrav=0,
  celldm(1)=1.8897261245650618d0,
  nat=52,
  ntyp=5,
  ecutwfc=29.39945797996531d00,
  ecutrho=293.9945797996531d00,
  nbnd=205,
  occupations='smearing',
  smearing='fd',
  degauss=0.007349864494991328d00,
  input_dft='BEEF-vdW',
  edir=3,
  emaxpos=0.9837326032728491d00,
  eopreg=0.025d00,
  eamp=0.0d00,
  nosym=.false.,
  noinv=.false.,
  nosym_evc=.false.,
  no_t_rev=.false.,
/
&ELECTRONS
  diagonalization='david',
  conv_thr=7.349864494991327e-08,
  mixing_beta=0.05d00,
  electron_maxstep=1000,
  startingpot='file',
  startingwfc='atomic',
/
&IONS
  ion_dynamics='ipi',
/
&CELL
  cell_dynamics='ipi',
/
CELL_PARAMETERS alat
    6.579727202290808d0     0.000000000000000d0     0.000000000000000d0
   -0.000775132442404d0     5.961596420607155d0     0.000000000000000d0
    0.000000000000000d0    -0.000000000000000d0    25.155947251439940d0
ATOMIC_SPECIES
Ti1 47.867d00 Ti.UPF
O1 15.999d00 O.UPF
N1 14.007d00 N.UPF
C1 12.011d00 C.UPF
H1 1.008d00 H.UPF
ATOMIC_POSITIONS {crystal}
Ti1      0.000123603383822d0     0.499897385958536d0     0.238512187198856d0
Ti1      0.500142521004230d0     0.250038178055688d0     0.238522014307695d0
O1       0.000095322930372d0     0.000084774873452d0     0.317452257936818d0
O1       0.500112315057126d0     0.000084209992886d0     0.290342007718641d0
O1       0.698270105622955d0     0.250236102495782d0     0.369213011426276d0
O1       0.301995368073695d0     0.249987007385122d0     0.369214717028816d0
Ti1      0.500198167309398d0     0.485761668506182d0     0.364758343030283d0
Ti1      0.000261424674789d0     0.248709163236136d0     0.368424970923767d0
O1       0.498137009407126d0     0.998357726388086d0     0.451189909847420d0
O1       0.001882992193933d0     0.999479849154423d0     0.422099495650131d0
O1       0.194883916910214d0     0.249772146879600d0     0.502582875283180d0
O1       0.800998620989947d0     0.249284827360118d0     0.501849342348494d0
Ti1      0.004065126742889d0     0.498736957648620d0     0.499782672027485d0
Ti1      0.506297716815998d0     0.248684773080341d0     0.496641254380729d0
O1       0.994693207236575d0     0.006409826599184d0     0.582308023359881d0
O1       0.499155187262560d0     0.998996320368164d0     0.555272569033222d0
O1       0.684947716835462d0     0.253031888500193d0     0.641943539864845d0
O1       0.305668026090484d0     0.251081563428052d0     0.641264378566447d0
Ti1      0.491961649905482d0     0.498067125935160d0     0.624512114241800d0
Ti1      0.990701986297517d0     0.256448772674923d0     0.635103846808313d0
O1       0.500093721748991d0     0.000084921243389d0     0.186906639369252d0
O1       0.996401148781028d0     0.988595775406950d0     0.684194125183500d0
O1       0.198268504441574d0     0.250236248865719d0     0.238667392858710d0
O1       0.801993766892314d0     0.249987153755059d0     0.238669098461250d0
Ti1      0.000123603383822d0     0.999897385958536d0     0.238512187198856d0
Ti1      0.500142521004230d0     0.750038178055688d0     0.238522014307695d0
O1       0.000095322930372d0     0.500084774873452d0     0.317452257936818d0
O1       0.500112315057126d0     0.500084209992886d0     0.290342007718641d0
O1       0.698270105622955d0     0.750236102495782d0     0.369213011426276d0
O1       0.301995368073695d0     0.749987007385122d0     0.369214717028816d0
Ti1      0.500001644927041d0     0.985370751416071d0     0.364779031055315d0
Ti1      0.000183276761494d0     0.748948988039575d0     0.368476322807288d0
O1       0.498940566517473d0     0.499320234079987d0     0.450954125863851d0
O1       0.001460782485842d0     0.499964783615161d0     0.422656139091726d0
O1       0.194302649015410d0     0.749134473007184d0     0.503279244892457d0
O1       0.801195414331857d0     0.749381640717159d0     0.502343054488937d0
Ti1      0.003814631722071d0     0.999310877200106d0     0.497707719648939d0
Ti1      0.506470708037106d0     0.748311266940142d0     0.496925096510105d0
O1       0.993407486935259d0     0.496254268332452d0     0.587676703390733d0
O1       0.498133376389327d0     0.498329592945714d0     0.553517786778415d0
O1       0.683724623065501d0     0.744945058969653d0     0.642951529868215d0
O1       0.304692212148536d0     0.746649518678490d0     0.640306183752034d0
Ti1      0.494647279934748d0     0.998979807337017d0     0.626561127679957d0
Ti1      0.996047654682018d0     0.785529514631861d0     0.632393177899556d0
O1       0.500093721748991d0     0.500084921243389d0     0.186906639369252d0
O1       0.198268504441574d0     0.750236248865719d0     0.238667392858710d0
O1       0.801993766892315d0     0.749987153755059d0     0.238669098461250d0
N1       0.861659392092687d0     0.546312946821081d0     0.741716383416672d0
C1       0.001444506146334d0     0.450298426689996d0     0.711833479204573d0
H1       0.133869358257843d0     0.401988689123959d0     0.735419215762499d0
H1       0.737484291108915d0     0.618514703972251d0     0.724195930754454d0
H1       0.883015749828869d0     0.583199930506252d0     0.780558567176446d0
K_POINTS automatic
4 4 1  0 0 0 
