&CONTROL
  calculation='relax',
  prefix='calc',
  pseudo_dir='/storage/coda1/p-amedford6/0/shared/rich_project_chbe-medford/medford-share/data/pseudos_module/espresso/nninc/pbe/van',
  outdir='.',
  tefield=.true.,
  dipfield=.true.,
  tprnfor=.true.,
  disk_io='none',
/
&SYSTEM
  ibrav=0,
  celldm(1)=1.8897261245650618d0,
  nat=51,
  ntyp=4,
  ecutwfc=29.39945797996531d00,
  ecutrho=293.9945797996531d00,
  nbnd=205,
  occupations='smearing',
  smearing='fd',
  degauss=0.007349864494991328d00,
  input_dft='BEEF-vdW',
  edir=3,
  emaxpos=0.9776928323091321d00,
  eopreg=0.025d00,
  eamp=0.0d00,
  nosym=.false.,
  noinv=.false.,
  nosym_evc=.false.,
  no_t_rev=.false.,
/
&ELECTRONS
  diagonalization='david',
  conv_thr=7.349864494991327e-08,
  mixing_beta=0.05d00,
  electron_maxstep=1000,
  startingpot='file',
  startingwfc='atomic',
/
&IONS
  ion_dynamics='ipi',
/
&CELL
  cell_dynamics='ipi',
/
CELL_PARAMETERS alat
    6.579727202290808d0     0.000000000000000d0     0.000000000000000d0
   -0.000775132442404d0     5.961596420607155d0     0.000000000000000d0
    0.000000000000000d0    -0.000000000000000d0    25.155947251439933d0
ATOMIC_SPECIES
Ti1 47.867d00 Ti.UPF
O1 15.999d00 O.UPF
C1 12.011d00 C.UPF
H1 1.008d00 H.UPF
ATOMIC_POSITIONS {crystal}
Ti1      0.000123603383822d0     0.499897385958537d0     0.238512187198856d0
Ti1      0.500142521004230d0     0.250038178055688d0     0.238522014307695d0
O1       0.000095322930372d0     0.000084774873452d0     0.317452257936819d0
O1       0.500112315057126d0     0.000084209992886d0     0.290342007718641d0
O1       0.698270105622955d0     0.250236102495782d0     0.369213011426276d0
O1       0.301995368073695d0     0.249987007385122d0     0.369214717028816d0
Ti1      0.500190661470560d0     0.499476356236026d0     0.364362395747206d0
Ti1      0.000043733603131d0     0.245418293267995d0     0.368734282780211d0
O1       0.501545835422415d0     0.997770493737548d0     0.451103702227905d0
O1       0.000224951972644d0     0.998318119120236d0     0.421108366958265d0
O1       0.195878741275385d0     0.247564098481919d0     0.501548831673118d0
O1       0.802824762084410d0     0.247007189423516d0     0.502153238086360d0
Ti1      0.006731402437130d0     0.502715918895200d0     0.509596675753283d0
Ti1      0.513961475612911d0     0.247887681841435d0     0.496220467908638d0
O1       0.005475992514905d0     0.995973643056081d0     0.581049363857377d0
O1       0.498647773542882d0     0.000502552951234d0     0.553951098637716d0
O1       0.693662886035659d0     0.251971267815799d0     0.638730010098767d0
O1       0.312931387608735d0     0.255665370886453d0     0.641294393765872d0
Ti1      0.505995373596707d0     0.502938528447051d0     0.625002850208467d0
Ti1      0.008649449472264d0     0.260542186291178d0     0.640035103781333d0
O1       0.500093721748990d0     0.000084921243389d0     0.186906639369252d0
O1       0.001380198077816d0     0.988597113203524d0     0.685292502107160d0
O1       0.198268504441574d0     0.250236248865719d0     0.238667392858710d0
O1       0.801993766892313d0     0.249987153755059d0     0.238669098461250d0
Ti1      0.000123603383822d0     0.999897385958537d0     0.238512187198856d0
Ti1      0.500142521004230d0     0.750038178055688d0     0.238522014307695d0
O1       0.000095322930372d0     0.500084774873452d0     0.317452257936819d0
O1       0.500112315057126d0     0.500084209992886d0     0.290342007718641d0
O1       0.698270105622955d0     0.750236102495782d0     0.369213011426276d0
O1       0.301995368073695d0     0.749987007385122d0     0.369214717028816d0
Ti1      0.500240918961234d0     0.999475459909838d0     0.364221262320910d0
Ti1      0.000393890549217d0     0.739833754080923d0     0.373786876948722d0
O1       0.501051315668967d0     0.498437949088829d0     0.450915098104056d0
O1       0.000004259042129d0     0.497999802816717d0     0.419769033220440d0
O1       0.195843996604225d0     0.747454274798636d0     0.501828666443068d0
O1       0.801706499726465d0     0.744744744917612d0     0.502418754592938d0
Ti1      0.012819467547431d0     0.003933052791691d0     0.501396855552432d0
Ti1      0.512825637713522d0     0.747172274671218d0     0.496469806900719d0
O1       0.006048808606451d0     0.493699797268925d0     0.583217706964900d0
O1       0.499068608984403d0     0.497698574679625d0     0.553469372576418d0
O1       0.693011355411142d0     0.752031492010764d0     0.637198817943065d0
O1       0.315912530086779d0     0.749054492194952d0     0.640306469248331d0
Ti1      0.505607045276584d0     0.001648516448672d0     0.625331016711114d0
Ti1      0.005463128419588d0     0.783239306134974d0     0.635339547811370d0
O1       0.500093721748990d0     0.500084921243389d0     0.186906639369252d0
C1       0.993482002521922d0     0.471863916978974d0     0.705058392807309d0
O1       0.198268504441574d0     0.750236248865719d0     0.238667392858710d0
O1       0.801993766892314d0     0.749987153755059d0     0.238669098461250d0
H1       0.131106770089518d0     0.518692812664870d0     0.727044311895650d0
O1       0.820421763930023d0     0.497136751113572d0     0.735683039407385d0
H1       0.852835550289810d0     0.576136837594387d0     0.768479025249012d0
K_POINTS automatic
4 4 1  0 0 0 
