&CONTROL
  calculation='relax',
  prefix='calc',
  pseudo_dir='/storage/coda1/p-amedford6/0/shared/rich_project_chbe-medford/medford-share/data/pseudos_module/espresso/nninc/pbe/van',
  outdir='.',
  tefield=.true.,
  dipfield=.true.,
  tprnfor=.true.,
  disk_io='none',
/
&SYSTEM
  ibrav=0,
  celldm(1)=1.8897261245650618d0,
  nat=54,
  ntyp=5,
  ecutwfc=29.39945797996531d00,
  ecutrho=293.9945797996531d00,
  nbnd=208,
  occupations='smearing',
  smearing='fd',
  degauss=0.007349864494991328d00,
  input_dft='BEEF-vdW',
  edir=3,
  emaxpos=0.9753447306547801d00,
  eopreg=0.025d00,
  eamp=0.0d00,
  nosym=.false.,
  noinv=.false.,
  nosym_evc=.false.,
  no_t_rev=.false.,
/
&ELECTRONS
  diagonalization='david',
  conv_thr=7.349864494991327e-08,
  mixing_beta=0.05d00,
  electron_maxstep=1000,
  startingpot='file',
  startingwfc='atomic',
/
&IONS
  ion_dynamics='ipi',
/
&CELL
  cell_dynamics='ipi',
/
CELL_PARAMETERS alat
    6.579727202290808d0     0.000000000000000d0     0.000000000000000d0
   -0.000775132442404d0     5.961596420607155d0     0.000000000000000d0
    0.000000000000000d0    -0.000000000000000d0    25.155947251439940d0
ATOMIC_SPECIES
Ti1 47.867d00 Ti.UPF
O1 15.999d00 O.UPF
N1 14.007d00 N.UPF
C1 12.011d00 C.UPF
H1 1.008d00 H.UPF
ATOMIC_POSITIONS {crystal}
Ti1      0.000123603383822d0     0.499897385958536d0     0.238512187198856d0
Ti1      0.500142521004230d0     0.250038178055688d0     0.238522014307695d0
O1       0.000095322930372d0     0.000084774873452d0     0.317452257936818d0
O1       0.500112315057126d0     0.000084209992886d0     0.290342007718641d0
O1       0.698270105622955d0     0.250236102495782d0     0.369213011426276d0
O1       0.301995368073695d0     0.249987007385122d0     0.369214717028816d0
Ti1      0.500198167309398d0     0.485761668506182d0     0.364758343030283d0
Ti1      0.000261424674789d0     0.248709163236136d0     0.368424970923767d0
O1       0.499848912300666d0     0.997085521665290d0     0.448323026452946d0
O1       0.001882992193933d0     0.999479849154423d0     0.422099495650131d0
O1       0.196105626549750d0     0.250284336605343d0     0.501830065527335d0
O1       0.805021353549102d0     0.249137001342393d0     0.501444166792278d0
Ti1      0.000546344992116d0     0.520112391236071d0     0.505143652735622d0
Ti1      0.501234893443597d0     0.220019452150080d0     0.503264581344149d0
O1       0.999178481722356d0     0.003761154560542d0     0.581886399109679d0
O1       0.500499105437404d0     0.007307938068631d0     0.552127308323340d0
O1       0.690169831703160d0     0.265385813075066d0     0.639008415843870d0
O1       0.310337833744668d0     0.263333661366620d0     0.639612910572460d0
Ti1      0.497754834089798d0     0.509565080612532d0     0.622351231971228d0
Ti1      0.983443255464214d0     0.258010273857292d0     0.632177871181215d0
O1       0.500093721748991d0     0.000084921243389d0     0.186906639369252d0
O1       0.996765964759438d0     0.007676638898807d0     0.683365129169066d0
O1       0.198268504441574d0     0.250236248865719d0     0.238667392858710d0
O1       0.801993766892314d0     0.249987153755059d0     0.238669098461250d0
Ti1      0.000123603383822d0     0.999897385958536d0     0.238512187198856d0
Ti1      0.500142521004230d0     0.750038178055688d0     0.238522014307695d0
O1       0.000095322930372d0     0.500084774873452d0     0.317452257936818d0
O1       0.500112315057126d0     0.500084209992886d0     0.290342007718641d0
O1       0.698270105622955d0     0.750236102495782d0     0.369213011426276d0
O1       0.301995368073695d0     0.749987007385122d0     0.369214717028816d0
Ti1      0.500001644927041d0     0.985370751416071d0     0.364779031055315d0
Ti1      0.000183276761494d0     0.748948988039575d0     0.368476322807288d0
O1       0.500368831848305d0     0.507527181870891d0     0.447074208408468d0
O1       0.001460782485842d0     0.499964783615161d0     0.422656139091726d0
O1       0.196636468387882d0     0.748963514954235d0     0.502235231040915d0
O1       0.804032682877475d0     0.749176264372831d0     0.501769588051801d0
Ti1      0.001711486448520d0     0.020250792932004d0     0.503090116085354d0
Ti1      0.501524916802633d0     0.739192496383398d0     0.493399367574784d0
O1       0.996193509609824d0     0.498735673649870d0     0.582541463657632d0
O1       0.500950155350587d0     0.502025736699363d0     0.551567163231602d0
O1       0.686585353329665d0     0.750246603225881d0     0.641180277421678d0
O1       0.306773332241567d0     0.749998675851505d0     0.638638698269932d0
Ti1      0.483177075147868d0     0.008691552938532d0     0.649799681135397d0
Ti1      0.991550473063928d0     0.778497978956630d0     0.639125143737050d0
O1       0.500093721748991d0     0.500084921243389d0     0.186906639369252d0
O1       0.198268504441574d0     0.750236248865719d0     0.238667392858710d0
O1       0.801993766892315d0     0.749987153755059d0     0.238669098461250d0
N1       0.010392919062133d0     0.501249499593464d0     0.688854561517141d0
C1       0.052416522740869d0     0.485103022647738d0     0.743534126052008d0
H1       0.090283691664419d0     0.645857558658059d0     0.762124928160191d0
H1       0.917704684929319d0     0.413379257577869d0     0.763782821940308d0
H1       0.172011017552877d0     0.359401742150772d0     0.751138209077125d0
O1       0.491853233992808d0     0.011579939809270d0     0.722332976554049d0
H1       0.580466364630882d0     0.907132694751443d0     0.740980842571125d0
K_POINTS automatic
4 4 1  0 0 0 
