&CONTROL
  calculation='relax',
  prefix='calc',
  pseudo_dir='/storage/coda1/p-amedford6/0/shared/rich_project_chbe-medford/medford-share/data/pseudos_module/espresso/nninc/pbe/van',
  outdir='.',
  tefield=.true.,
  dipfield=.true.,
  tprnfor=.true.,
  disk_io='none',
/
&SYSTEM
  ibrav=0,
  celldm(1)=1.8897261245650618d0,
  nat=53,
  ntyp=5,
  ecutwfc=29.39945797996531d00,
  ecutrho=293.9945797996531d00,
  nbnd=205,
  occupations='smearing',
  smearing='fd',
  degauss=0.007349864494991328d00,
  input_dft='BEEF-vdW',
  edir=3,
  emaxpos=0.9821773524607549d00,
  eopreg=0.025d00,
  eamp=0.0d00,
  nosym=.false.,
  noinv=.false.,
  nosym_evc=.false.,
  no_t_rev=.false.,
/
&ELECTRONS
  diagonalization='david',
  conv_thr=7.349864494991327e-08,
  mixing_beta=0.05d00,
  electron_maxstep=1000,
  startingwfc='atomic',
/
&IONS
  ion_dynamics='ipi',
/
&CELL
  cell_dynamics='ipi',
/
CELL_PARAMETERS alat
    6.579727202290808d0     0.000000000000000d0     0.000000000000000d0
   -0.000775132442404d0     5.961596420607155d0     0.000000000000000d0
    0.000000000000000d0    -0.000000000000000d0    25.155947251439940d0
ATOMIC_SPECIES
Ti1 47.867d00 Ti.UPF
O1 15.999d00 O.UPF
H1 1.008d00 H.UPF
N1 14.007d00 N.UPF
C1 12.011d00 C.UPF
ATOMIC_POSITIONS {crystal}
Ti1      0.000123603383822d0     0.499897385958536d0     0.238512187198856d0
Ti1      0.500142521004230d0     0.250038178055688d0     0.238522014307695d0
O1       0.000095322930372d0     0.000084774873452d0     0.317452257936818d0
O1       0.500112315057126d0     0.000084209992886d0     0.290342007718641d0
O1       0.698270105622955d0     0.250236102495782d0     0.369213011426276d0
O1       0.301995368073695d0     0.249987007385122d0     0.369214717028816d0
Ti1      0.500198167309398d0     0.485761668506182d0     0.364758343030283d0
Ti1      0.000261424674789d0     0.248709163236136d0     0.368424970923767d0
O1       0.500844641861722d0     0.000258427017511d0     0.450822605026111d0
O1       0.001882992193933d0     0.999479849154423d0     0.422099495650131d0
O1       0.201525330186001d0     0.250059862770419d0     0.501653418766783d0
O1       0.806417212306658d0     0.248880883340209d0     0.501332579149154d0
Ti1      0.993093314696087d0     0.494670882649258d0     0.502028858897396d0
Ti1      0.489217819828858d0     0.251060412479109d0     0.496166619460623d0
O1       0.999728916449405d0     0.004078442109315d0     0.581989074522542d0
O1       0.504818904943484d0     0.002216614991314d0     0.554002881718834d0
O1       0.688327161216748d0     0.257001739235949d0     0.640290274754273d0
O1       0.311508037702200d0     0.256388742330073d0     0.638853156815830d0
Ti1      0.504583899163295d0     0.505025058142215d0     0.624020070013168d0
Ti1      0.014566135566822d0     0.258676735861576d0     0.632222234539167d0
O1       0.500093721748991d0     0.000084921243389d0     0.186906639369252d0
O1       0.004254518182879d0     0.005234405228268d0     0.683523851507230d0
O1       0.198268504441574d0     0.250236248865719d0     0.238667392858710d0
O1       0.801993766892314d0     0.249987153755059d0     0.238669098461250d0
Ti1      0.000123603383822d0     0.999897385958536d0     0.238512187198856d0
Ti1      0.500142521004230d0     0.750038178055688d0     0.238522014307695d0
O1       0.000095322930372d0     0.500084774873452d0     0.317452257936818d0
O1       0.500112315057126d0     0.500084209992886d0     0.290342007718641d0
O1       0.698270105622955d0     0.750236102495782d0     0.369213011426276d0
O1       0.301995368073695d0     0.749987007385122d0     0.369214717028816d0
Ti1      0.500001644927041d0     0.985370751416071d0     0.364779031055315d0
Ti1      0.000183276761494d0     0.748948988039575d0     0.368476322807288d0
O1       0.501529803795273d0     0.501591503882695d0     0.450603416401057d0
O1       0.001460782485842d0     0.499964783615161d0     0.422656139091726d0
O1       0.200586885372205d0     0.750833669216054d0     0.502333226152760d0
O1       0.806878739812901d0     0.750113393719213d0     0.502169578423554d0
Ti1      0.992633819450657d0     0.994131715737133d0     0.500039067835985d0
Ti1      0.489018221525812d0     0.750638528005214d0     0.496423536959049d0
O1       0.000535887419524d0     0.492560007103121d0     0.582695822675147d0
O1       0.504375517947447d0     0.501390274797661d0     0.552774203298228d0
O1       0.690774252056911d0     0.752530376855428d0     0.639619029634525d0
O1       0.313374176190438d0     0.752351685634648d0     0.639403261568963d0
Ti1      0.509674080861684d0     0.002405395941416d0     0.625324144908870d0
Ti1      0.007354122216180d0     0.780275472568324d0     0.638890309168026d0
O1       0.500093721748991d0     0.500084921243389d0     0.186906639369252d0
O1       0.198268504441574d0     0.750236248865719d0     0.238667392858710d0
O1       0.801993766892315d0     0.749987153755059d0     0.238669098461250d0
H1       0.852287691756244d0     0.485493584591089d0     0.707672499561111d0
N1       0.996903026579001d0     0.502579763808938d0     0.694185155159612d0
C1       0.134246778108688d0     0.523761604015262d0     0.740375652745628d0
H1       0.201526185020118d0     0.691282037090768d0     0.742022143105428d0
H1       0.049937922817315d0     0.499235091522305d0     0.777448065552257d0
H1       0.255183009645336d0     0.398496066928735d0     0.738843754231223d0
K_POINTS automatic
4 4 1  0 0 0 
