&CONTROL
  calculation='relax',
  prefix='calc',
  pseudo_dir='/storage/coda1/p-amedford6/0/shared/rich_project_chbe-medford/medford-share/data/pseudos_module/espresso/nninc/pbe/van',
  outdir='.',
  tefield=.true.,
  dipfield=.true.,
  tprnfor=.true.,
  disk_io='none',
/
&SYSTEM
  ibrav=0,
  celldm(1)=1.8897261245650618d0,
  nat=53,
  ntyp=4,
  ecutwfc=29.39945797996531d00,
  ecutrho=293.9945797996531d00,
  nbnd=206,
  occupations='smearing',
  smearing='fd',
  degauss=0.007349864494991328d00,
  input_dft='BEEF-vdW',
  edir=3,
  emaxpos=0.9935820976830173d00,
  eopreg=0.025d00,
  eamp=0.0d00,
  nosym=.false.,
  noinv=.false.,
  nosym_evc=.false.,
  no_t_rev=.false.,
/
&ELECTRONS
  diagonalization='david',
  conv_thr=7.349864494991327e-08,
  mixing_beta=0.05d00,
  electron_maxstep=1000,
  startingwfc='atomic',
/
&IONS
  ion_dynamics='ipi',
/
&CELL
  cell_dynamics='ipi',
/
CELL_PARAMETERS alat
    6.579727202290808d0     0.000000000000000d0     0.000000000000000d0
   -0.000775132442404d0     5.961596420607155d0     0.000000000000000d0
    0.000000000000000d0    -0.000000000000000d0    25.155947251439940d0
ATOMIC_SPECIES
Ti1 47.867d00 Ti.UPF
O1 15.999d00 O.UPF
C1 12.011d00 C.UPF
H1 1.008d00 H.UPF
ATOMIC_POSITIONS {crystal}
Ti1      0.000123603383822d0     0.499897385958537d0     0.238512187198856d0
Ti1      0.500142521004230d0     0.250038178055688d0     0.238522014307695d0
O1       0.000095322930372d0     0.000084774873452d0     0.317452257936818d0
O1       0.500112315057126d0     0.000084209992886d0     0.290342007718641d0
O1       0.698270105622955d0     0.250236102495782d0     0.369213011426276d0
O1       0.301995368073695d0     0.249987007385122d0     0.369214717028816d0
Ti1      0.501047250704289d0     0.497894238044693d0     0.363927949471482d0
Ti1      0.998976928286161d0     0.251301548503133d0     0.368314118307648d0
O1       0.495930998208282d0     0.002052336828024d0     0.453695968686110d0
O1       0.998684629029924d0     0.999956783458180d0     0.422813187363283d0
O1       0.190917198576728d0     0.254334757793604d0     0.504208460895740d0
O1       0.800860373561519d0     0.253364731567480d0     0.504162090254646d0
Ti1      0.994298643800206d0     0.505643835568774d0     0.496570180752348d0
Ti1      0.493579043003665d0     0.252844096589094d0     0.498903247113643d0
O1       0.998118660331393d0     0.016786886484820d0     0.586680629244082d0
O1       0.493880131239556d0     0.006093261483593d0     0.558036373502986d0
O1       0.682823174004950d0     0.253254810341694d0     0.644562747123891d0
O1       0.301233536459701d0     0.258216041074738d0     0.646373348534223d0
Ti1      0.496633156026462d0     0.505343177081359d0     0.628241545229552d0
Ti1      0.999528177104616d0     0.249470864001832d0     0.637138900724054d0
O1       0.500093721748991d0     0.000084921243389d0     0.186906639369252d0
O1       0.990506063315795d0     0.989792876633750d0     0.688669076336110d0
O1       0.198268504441574d0     0.250236248865719d0     0.238667392858710d0
O1       0.801993766892314d0     0.249987153755059d0     0.238669098461250d0
Ti1      0.000123603383822d0     0.999897385958537d0     0.238512187198856d0
Ti1      0.500142521004230d0     0.750038178055688d0     0.238522014307695d0
O1       0.000095322930372d0     0.500084774873452d0     0.317452257936818d0
O1       0.500112315057126d0     0.500084209992886d0     0.290342007718641d0
O1       0.698270105622955d0     0.750236102495782d0     0.369213011426276d0
O1       0.301995368073695d0     0.749987007385122d0     0.369214717028816d0
Ti1      0.496388291325484d0     0.997541054439737d0     0.363950174857788d0
Ti1      0.997903376097562d0     0.753511455129409d0     0.368038541578102d0
O1       0.496846598569353d0     0.504341913406888d0     0.453345155595103d0
O1       0.998149098180623d0     0.501580611296012d0     0.422759208553664d0
O1       0.190695359809069d0     0.751507088331961d0     0.505474112629893d0
O1       0.800315479248440d0     0.752347102872783d0     0.505276633649960d0
Ti1      0.994970096902023d0     0.006129739199493d0     0.497302859777973d0
Ti1      0.493066726903374d0     0.752485662543518d0     0.499498720250894d0
O1       0.992506522564884d0     0.503158043029376d0     0.597677261071027d0
O1       0.494867305951956d0     0.502825847447246d0     0.556907441933016d0
O1       0.684813674333788d0     0.753568604385727d0     0.643518694533045d0
O1       0.301921504446511d0     0.751340294785792d0     0.644636474222932d0
Ti1      0.493693421378625d0     0.004284872169349d0     0.629650661807844d0
Ti1      0.994317050890748d0     0.789168964347179d0     0.635359040583696d0
O1       0.500093721748991d0     0.500084921243389d0     0.186906639369252d0
O1       0.198268504441574d0     0.750236248865719d0     0.238667392858710d0
O1       0.801993766892315d0     0.749987153755059d0     0.238669098461250d0
C1       0.075982003372477d0     0.528280816243596d0     0.761451548275560d0
O1       0.960600545417530d0     0.406232414658107d0     0.721912866473080d0
H1       0.021249115881348d0     0.699995092991048d0     0.760365077673026d0
H1       0.955178028718937d0     0.246261086581060d0     0.731167649582197d0
H1       0.048077101302336d0     0.454397822009088d0     0.800257555996782d0
H1       0.237934872457047d0     0.524228702735351d0     0.752779625103681d0
K_POINTS automatic
4 4 1  0 0 0 
