&CONTROL
  calculation='relax',
  prefix='calc',
  pseudo_dir='/storage/coda1/p-amedford6/0/shared/rich_project_chbe-medford/medford-share/data/pseudos_module/espresso/nninc/pbe/van',
  outdir='.',
  tefield=.true.,
  dipfield=.true.,
  tprnfor=.true.,
  disk_io='none',
/
&SYSTEM
  ibrav=0,
  celldm(1)=1.8897261245650618d0,
  nat=54,
  ntyp=5,
  ecutwfc=29.39945797996531d00,
  ecutrho=293.9945797996531d00,
  nbnd=208,
  occupations='smearing',
  smearing='fd',
  degauss=0.007349864494991328d00,
  input_dft='BEEF-vdW',
  edir=3,
  emaxpos=0.0025278229105185623d00,
  eopreg=0.025d00,
  eamp=0.0d00,
  nosym=.false.,
  noinv=.false.,
  nosym_evc=.false.,
  no_t_rev=.false.,
/
&ELECTRONS
  diagonalization='david',
  conv_thr=7.349864494991327e-08,
  mixing_beta=0.05d00,
  electron_maxstep=1000,
  startingpot='file',
  startingwfc='atomic',
/
&IONS
  ion_dynamics='ipi',
/
&CELL
  cell_dynamics='ipi',
/
CELL_PARAMETERS alat
    6.579727202290808d0     0.000000000000000d0     0.000000000000000d0
   -0.000775132442404d0     5.961596420607155d0     0.000000000000000d0
    0.000000000000000d0    -0.000000000000000d0    25.155947251439940d0
ATOMIC_SPECIES
Ti1 47.867d00 Ti.UPF
O1 15.999d00 O.UPF
N1 14.007d00 N.UPF
C1 12.011d00 C.UPF
H1 1.008d00 H.UPF
ATOMIC_POSITIONS {crystal}
Ti1      0.000123603383822d0     0.499897385958536d0     0.238512187198856d0
Ti1      0.500142521004230d0     0.250038178055688d0     0.238522014307695d0
O1       0.000095322930372d0     0.000084774873452d0     0.317452257936818d0
O1       0.500112315057126d0     0.000084209992886d0     0.290342007718641d0
O1       0.698270105622955d0     0.250236102495782d0     0.369213011426276d0
O1       0.301995368073695d0     0.249987007385122d0     0.369214717028816d0
Ti1      0.500198167309398d0     0.485761668506182d0     0.364758343030283d0
Ti1      0.000261424674789d0     0.248709163236136d0     0.368424970923767d0
O1       0.499964391744206d0     0.000719045192221d0     0.450013174183226d0
O1       0.001882992193933d0     0.999479849154423d0     0.422099495650131d0
O1       0.195297086591750d0     0.251373767814857d0     0.501800840766563d0
O1       0.800801488151413d0     0.249830350666003d0     0.501095036505176d0
Ti1      0.012211473598582d0     0.506093956365459d0     0.501696033912193d0
Ti1      0.516913809105169d0     0.249798630614999d0     0.495812529756189d0
O1       0.998633101099192d0     0.001347107785799d0     0.581425646814382d0
O1       0.500058795702740d0     0.002018113810663d0     0.552470159929658d0
O1       0.685866068057900d0     0.257414362575956d0     0.638021848008553d0
O1       0.310892290897533d0     0.257695830990307d0     0.637810088753177d0
Ti1      0.498067603500437d0     0.506639038172760d0     0.623681229766250d0
Ti1      0.996981813132271d0     0.264669015519663d0     0.629318295165817d0
O1       0.500093721748991d0     0.000084921243389d0     0.186906639369252d0
O1       0.998669721797594d0     0.011259524833875d0     0.685107266895648d0
O1       0.198268504441574d0     0.250236248865719d0     0.238667392858710d0
O1       0.801993766892314d0     0.249987153755059d0     0.238669098461250d0
Ti1      0.000123603383822d0     0.999897385958536d0     0.238512187198856d0
Ti1      0.500142521004230d0     0.750038178055688d0     0.238522014307695d0
O1       0.000095322930372d0     0.500084774873452d0     0.317452257936818d0
O1       0.500112315057126d0     0.500084209992886d0     0.290342007718641d0
O1       0.698270105622955d0     0.750236102495782d0     0.369213011426276d0
O1       0.301995368073695d0     0.749987007385122d0     0.369214717028816d0
Ti1      0.500001644927041d0     0.985370751416071d0     0.364779031055315d0
Ti1      0.000183276761494d0     0.748948988039575d0     0.368476322807288d0
O1       0.500374975790117d0     0.500464098103845d0     0.449884270256609d0
O1       0.001460782485842d0     0.499964783615161d0     0.422656139091726d0
O1       0.195271916791021d0     0.751468284044342d0     0.501835285277315d0
O1       0.801882058340600d0     0.750340206415493d0     0.501046493965814d0
Ti1      0.011910516313529d0     0.004958892976218d0     0.502445648372230d0
Ti1      0.517171448846948d0     0.749687644151145d0     0.495740406334499d0
O1       0.998486532813743d0     0.499865680422118d0     0.581676908481835d0
O1       0.500072365281627d0     0.503469123672283d0     0.551954946581655d0
O1       0.684961537821059d0     0.755998356575785d0     0.639583606721447d0
O1       0.311360490040752d0     0.755838495976802d0     0.639027799773710d0
Ti1      0.497626889806486d0     0.006156452588982d0     0.624188046121716d0
Ti1      0.997984777101064d0     0.780298559921031d0     0.641923497532535d0
O1       0.500093721748991d0     0.500084921243389d0     0.186906639369252d0
O1       0.198268504441574d0     0.750236248865719d0     0.238667392858710d0
O1       0.801993766892315d0     0.749987153755059d0     0.238669098461250d0
N1       0.991005223565665d0     0.446142124588141d0     0.738866482541964d0
N1       0.999540957578837d0     0.497510505195332d0     0.688710035830806d0
C1       0.016682807020557d0     0.608852945085030d0     0.781259713463575d0
H1       0.932737385912712d0     0.760802431531709d0     0.771553135188048d0
H1       0.959708214308165d0     0.536454993286390d0     0.818149006451784d0
H1       0.177309048097273d0     0.653746827752441d0     0.786452055027513d0
H1       0.999411518142770d0     0.278988304818447d0     0.747527222780411d0
K_POINTS automatic
4 4 1  0 0 0 
