&CONTROL
  calculation='relax',
  prefix='calc',
  pseudo_dir='/storage/coda1/p-amedford6/0/shared/rich_project_chbe-medford/medford-share/data/pseudos_module/espresso/nninc/pbe/van',
  outdir='.',
  tefield=.true.,
  dipfield=.true.,
  tprnfor=.true.,
  disk_io='none',
/
&SYSTEM
  ibrav=0,
  celldm(1)=1.8897261245650618d0,
  nat=55,
  ntyp=5,
  ecutwfc=29.39945797996531d00,
  ecutrho=293.9945797996531d00,
  nbnd=209,
  occupations='smearing',
  smearing='fd',
  degauss=0.007349864494991328d00,
  input_dft='BEEF-vdW',
  edir=3,
  emaxpos=0.9773816229615605d00,
  eopreg=0.025d00,
  eamp=0.0d00,
  nosym=.false.,
  noinv=.false.,
  nosym_evc=.false.,
  no_t_rev=.false.,
/
&ELECTRONS
  diagonalization='david',
  conv_thr=7.349864494991327e-08,
  mixing_beta=0.05d00,
  electron_maxstep=1000,
  startingpot='file',
  startingwfc='atomic',
/
&IONS
  ion_dynamics='ipi',
/
&CELL
  cell_dynamics='ipi',
/
CELL_PARAMETERS alat
    6.579727202290808d0     0.000000000000000d0     0.000000000000000d0
   -0.000775132442404d0     5.961596420607155d0     0.000000000000000d0
    0.000000000000000d0    -0.000000000000000d0    25.155947251439940d0
ATOMIC_SPECIES
Ti1 47.867d00 Ti.UPF
O1 15.999d00 O.UPF
H1 1.008d00 H.UPF
N1 14.007d00 N.UPF
C1 12.011d00 C.UPF
ATOMIC_POSITIONS {crystal}
Ti1      0.000123603383822d0     0.499897385958536d0     0.238512187198856d0
Ti1      0.500142521004230d0     0.250038178055688d0     0.238522014307695d0
O1       0.000095322930372d0     0.000084774873452d0     0.317452257936818d0
O1       0.500112315057126d0     0.000084209992886d0     0.290342007718641d0
O1       0.698270105622955d0     0.250236102495782d0     0.369213011426276d0
O1       0.301995368073695d0     0.249987007385122d0     0.369214717028816d0
Ti1      0.500198167309398d0     0.485761668506182d0     0.364758343030283d0
Ti1      0.000261424674789d0     0.248709163236136d0     0.368424970923767d0
O1       0.499089968405105d0     0.995716019771515d0     0.447771433128501d0
O1       0.001882992193933d0     0.999479849154423d0     0.422099495650131d0
O1       0.195356063456798d0     0.249383011801272d0     0.501891298187131d0
O1       0.804384818019496d0     0.247793703570342d0     0.501639509948498d0
Ti1      0.000609075547442d0     0.476462378381251d0     0.504936188530532d0
Ti1      0.498746230500838d0     0.216821954267512d0     0.502632788137692d0
O1       0.999995404076303d0     0.995619710634774d0     0.581926116329900d0
O1       0.499299878771648d0     0.002744050135094d0     0.551156702124440d0
O1       0.690724741876420d0     0.254375643638757d0     0.636819479430330d0
O1       0.307927113317246d0     0.250437193234179d0     0.639016800332754d0
Ti1      0.503973565903893d0     0.498184444031688d0     0.620906411043793d0
Ti1      0.007864772866992d0     0.221989571712269d0     0.638934788735455d0
O1       0.500093721748991d0     0.000084921243389d0     0.186906639369252d0
O1       0.994902853744052d0     0.993397487880748d0     0.683221043060319d0
O1       0.198268504441574d0     0.250236248865719d0     0.238667392858710d0
O1       0.801993766892314d0     0.249987153755059d0     0.238669098461250d0
Ti1      0.000123603383822d0     0.999897385958536d0     0.238512187198856d0
Ti1      0.500142521004230d0     0.750038178055688d0     0.238522014307695d0
O1       0.000095322930372d0     0.500084774873452d0     0.317452257936818d0
O1       0.500112315057126d0     0.500084209992886d0     0.290342007718641d0
O1       0.698270105622955d0     0.750236102495782d0     0.369213011426276d0
O1       0.301995368073695d0     0.749987007385122d0     0.369214717028816d0
Ti1      0.500001644927041d0     0.985370751416071d0     0.364779031055315d0
Ti1      0.000183276761494d0     0.748948988039575d0     0.368476322807288d0
O1       0.499490232174409d0     0.505359748417987d0     0.446495380338716d0
O1       0.001460782485842d0     0.499964783615161d0     0.422656139091726d0
O1       0.195724303641391d0     0.748907923529330d0     0.501463083857257d0
O1       0.802542798860136d0     0.749103877941074d0     0.501328877881177d0
Ti1      0.995754664115814d0     0.977284097766350d0     0.502557162088579d0
Ti1      0.496347317242790d0     0.736679206055034d0     0.492936777560409d0
O1       0.000113360248414d0     0.501885928888233d0     0.582525505189667d0
O1       0.499093120152191d0     0.497373002837528d0     0.550206149672600d0
O1       0.687736970859573d0     0.738563805784283d0     0.636598237022398d0
O1       0.306064912957696d0     0.739679581029391d0     0.637999620392856d0
Ti1      0.507578241427695d0     0.999540612242907d0     0.647394209625458d0
Ti1      0.013239964628456d0     0.742613596742771d0     0.631642736516324d0
O1       0.500093721748991d0     0.500084921243389d0     0.186906639369252d0
O1       0.198268504441574d0     0.750236248865719d0     0.238667392858710d0
O1       0.801993766892315d0     0.749987153755059d0     0.238669098461250d0
H1       0.845829568341384d0     0.502976477919650d0     0.706610986915411d0
N1       0.991985830296365d0     0.499933966708114d0     0.693480902270095d0
C1       0.125481709659406d0     0.505500669875516d0     0.740396317819429d0
H1       0.112777672944266d0     0.666140488010016d0     0.761151893485322d0
H1       0.088034844898941d0     0.369278286045124d0     0.767856606553869d0
H1       0.283304991696279d0     0.483895740213055d0     0.728700837856928d0
O1       0.523396731139445d0     0.997169480319536d0     0.719809261265176d0
H1       0.655699798563686d0     0.979001538094074d0     0.736383030895157d0
K_POINTS automatic
4 4 1  0 0 0 
