&CONTROL
  calculation='relax',
  prefix='calc',
  pseudo_dir='/storage/coda1/p-amedford6/0/shared/rich_project_chbe-medford/medford-share/data/pseudos_module/espresso/nninc/pbe/van',
  outdir='.',
  tefield=.true.,
  dipfield=.true.,
  tprnfor=.true.,
  disk_io='none',
/
&SYSTEM
  ibrav=0,
  celldm(1)=1.8897261245650618d0,
  nat=58,
  ntyp=5,
  ecutwfc=29.39945797996531d00,
  ecutrho=293.9945797996531d00,
  nbnd=212,
  occupations='smearing',
  smearing='fd',
  degauss=0.007349864494991328d00,
  input_dft='BEEF-vdW',
  edir=3,
  emaxpos=0.006495840594671787d00,
  eopreg=0.025d00,
  eamp=0.0d00,
  nosym=.false.,
  noinv=.false.,
  nosym_evc=.false.,
  no_t_rev=.false.,
/
&ELECTRONS
  diagonalization='david',
  conv_thr=7.349864494991327e-08,
  mixing_beta=0.05d00,
  electron_maxstep=1000,
  startingpot='file',
  startingwfc='atomic',
/
&IONS
  ion_dynamics='ipi',
/
&CELL
  cell_dynamics='ipi',
/
CELL_PARAMETERS alat
    6.579727202290808d0     0.000000000000000d0     0.000000000000000d0
   -0.000775132442404d0     5.961596420607155d0     0.000000000000000d0
    0.000000000000000d0    -0.000000000000000d0    25.155947251439940d0
ATOMIC_SPECIES
Ti1 47.867d00 Ti.UPF
O1 15.999d00 O.UPF
N1 14.007d00 N.UPF
C1 12.011d00 C.UPF
H1 1.008d00 H.UPF
ATOMIC_POSITIONS {crystal}
Ti1      0.000123603383822d0     0.499897385958536d0     0.238512187198856d0
Ti1      0.500142521004230d0     0.250038178055688d0     0.238522014307695d0
O1       0.000095322930372d0     0.000084774873452d0     0.317452257936818d0
O1       0.500112315057126d0     0.000084209992886d0     0.290342007718641d0
O1       0.698270105622955d0     0.250236102495782d0     0.369213011426276d0
O1       0.301995368073695d0     0.249987007385122d0     0.369214717028816d0
Ti1      0.500198167309398d0     0.485761668506182d0     0.364758343030283d0
Ti1      0.000261424674789d0     0.248709163236136d0     0.368424970923767d0
O1       0.502548598799795d0     0.001353319372425d0     0.451516558708980d0
O1       0.001882992193933d0     0.999479849154423d0     0.422099495650131d0
O1       0.197607380987056d0     0.251707239935223d0     0.502601757054268d0
O1       0.809813624291915d0     0.250441877637477d0     0.502591604014312d0
Ti1      0.001977496093551d0     0.505648188192333d0     0.497560555962049d0
Ti1      0.504395872150199d0     0.263493916051483d0     0.494412782739217d0
O1       0.006832787320467d0     0.011500584483906d0     0.582684879755149d0
O1       0.504150039600487d0     0.989434284048787d0     0.556215662041092d0
O1       0.695552207254549d0     0.250260829531118d0     0.643556163433782d0
O1       0.309926334185400d0     0.251741405425097d0     0.642701295834412d0
Ti1      0.503915731978645d0     0.490413111525167d0     0.624053475202587d0
Ti1      0.012311601467300d0     0.239736384555638d0     0.636191282306807d0
O1       0.500093721748991d0     0.000084921243389d0     0.186906639369252d0
O1       0.004720089591949d0     0.973667320765820d0     0.682686448096317d0
O1       0.198268504441574d0     0.250236248865719d0     0.238667392858710d0
O1       0.801993766892314d0     0.249987153755059d0     0.238669098461250d0
Ti1      0.000123603383822d0     0.999897385958536d0     0.238512187198856d0
Ti1      0.500142521004230d0     0.750038178055688d0     0.238522014307695d0
O1       0.000095322930372d0     0.500084774873452d0     0.317452257936818d0
O1       0.500112315057126d0     0.500084209992886d0     0.290342007718641d0
O1       0.698270105622955d0     0.750236102495782d0     0.369213011426276d0
O1       0.301995368073695d0     0.749987007385122d0     0.369214717028816d0
Ti1      0.500001644927041d0     0.985370751416071d0     0.364779031055315d0
Ti1      0.000183276761494d0     0.748948988039575d0     0.368476322807288d0
O1       0.503136434034883d0     0.495626491224016d0     0.449905413009669d0
O1       0.001460782485842d0     0.499964783615161d0     0.422656139091726d0
O1       0.196415278644278d0     0.748767363836773d0     0.504180039877007d0
O1       0.810638721095893d0     0.749831924232657d0     0.504188350062945d0
Ti1      0.005479574412290d0     0.007299448358464d0     0.496989127855203d0
Ti1      0.504157568467148d0     0.781616940594519d0     0.505772997807257d0
O1       0.999104784671148d0     0.487631872575947d0     0.592148247277715d0
O1       0.505500391816077d0     0.494822549955432d0     0.553718896980002d0
O1       0.694920823524868d0     0.735533328317459d0     0.642387756437582d0
O1       0.308515429059843d0     0.730476311850204d0     0.639644169073838d0
Ti1      0.514419063331152d0     0.989856835488127d0     0.649854916981526d0
Ti1      0.011686461981076d0     0.776845811917296d0     0.628390790189973d0
O1       0.500093721748991d0     0.500084921243389d0     0.186906639369252d0
O1       0.198268504441574d0     0.750236248865719d0     0.238667392858710d0
O1       0.801993766892315d0     0.749987153755059d0     0.238669098461250d0
N1       0.157185690677035d0     0.505665666384198d0     0.749523969109005d0
N1       0.982078224704966d0     0.432070735442517d0     0.719205399547793d0
C1       0.097115948435712d0     0.628848018636501d0     0.797832692151322d0
H1       0.989930144979552d0     0.765459394283174d0     0.788940675257638d0
H1       0.028574295891572d0     0.514231659224245d0     0.826085041820091d0
H1       0.234106094754171d0     0.700604517255976d0     0.814866600582026d0
H1       0.866885871632847d0     0.547930383621991d0     0.721295529681742d0
H1       0.928579715764053d0     0.289584632936476d0     0.736771519852372d0
H1       0.234127134400001d0     0.612807661595439d0     0.725340818552702d0
O1       0.490944855609397d0     0.987665170069478d0     0.723259096224348d0
H1       0.406861003866702d0     0.104654604346329d0     0.738811294745318d0
K_POINTS automatic
4 4 1  0 0 0 
