&CONTROL
  calculation='relax',
  prefix='calc',
  pseudo_dir='/storage/coda1/p-amedford6/0/shared/rich_project_chbe-medford/medford-share/data/pseudos_module/espresso/nninc/pbe/van',
  outdir='.',
  tefield=.true.,
  dipfield=.true.,
  tprnfor=.true.,
  disk_io='none',
/
&SYSTEM
  ibrav=0,
  celldm(1)=1.8897261245650618d0,
  nat=53,
  ntyp=5,
  ecutwfc=29.39945797996531d00,
  ecutrho=293.9945797996531d00,
  nbnd=210,
  occupations='smearing',
  smearing='fd',
  degauss=0.007349864494991328d00,
  input_dft='BEEF-vdW',
  edir=3,
  emaxpos=0.9971155769544872d00,
  eopreg=0.025d00,
  eamp=0.0d00,
  nosym=.false.,
  noinv=.false.,
  nosym_evc=.false.,
  no_t_rev=.false.,
/
&ELECTRONS
  diagonalization='david',
  conv_thr=7.349864494991327e-08,
  mixing_beta=0.05d00,
  electron_maxstep=1000,
  startingpot='file',
  startingwfc='atomic',
/
&IONS
  ion_dynamics='ipi',
/
&CELL
  cell_dynamics='ipi',
/
CELL_PARAMETERS alat
    6.579727202290808d0     0.000000000000000d0     0.000000000000000d0
   -0.000775132442404d0     5.961596420607155d0     0.000000000000000d0
    0.000000000000000d0    -0.000000000000000d0    25.155947251439940d0
ATOMIC_SPECIES
C1 12.011d00 C.UPF
H1 1.008d00 H.UPF
O1 15.999d00 O.UPF
Ti1 47.867d00 Ti.UPF
N1 14.007d00 N.UPF
ATOMIC_POSITIONS {crystal}
C1       0.976511478864202d0     0.501721116414480d0     0.743035841878569d0
H1       0.972463920184388d0     0.659857487924126d0     0.764396848764389d0
H1       0.967726857406042d0     0.341964891423626d0     0.763650265958144d0
O1       0.500093721748991d0     0.000084921243389d0     0.186906639369252d0
O1       0.500093721748991d0     0.500084921243389d0     0.186906639369252d0
O1       0.198268504441574d0     0.250236248865719d0     0.238667392858710d0
O1       0.198268504441574d0     0.750236248865719d0     0.238667392858710d0
O1       0.801993766892314d0     0.249987153755059d0     0.238669098461250d0
O1       0.801993766892315d0     0.749987153755059d0     0.238669098461250d0
O1       0.500112315057126d0     0.000084209992886d0     0.290342007718641d0
O1       0.500112315057126d0     0.500084209992886d0     0.290342007718641d0
O1       0.000095322930372d0     0.000084774873452d0     0.317452257936818d0
O1       0.000095322930372d0     0.500084774873452d0     0.317452257936818d0
O1       0.698270105622955d0     0.250236102495782d0     0.369213011426276d0
O1       0.698270105622955d0     0.750236102495782d0     0.369213011426276d0
O1       0.301995368073695d0     0.249987007385122d0     0.369214717028816d0
O1       0.301995368073695d0     0.749987007385122d0     0.369214717028816d0
O1       0.000942256052217d0     0.501183263234714d0     0.420705026025110d0
O1       0.000957482992832d0     0.001560313453771d0     0.421393466014104d0
O1       0.500920640737603d0     0.502449845910149d0     0.450807184393122d0
O1       0.500694265368747d0     0.002294474206141d0     0.450970767286511d0
O1       0.804083595379739d0     0.252074670793765d0     0.502136538571265d0
O1       0.804293168249820d0     0.752081825155449d0     0.502265448097123d0
O1       0.196601111077116d0     0.252281958895369d0     0.502314645980912d0
O1       0.196487449930711d0     0.752308987025450d0     0.502448174291579d0
O1       0.500921368852503d0     0.502576948371574d0     0.553269960246105d0
O1       0.501080004742731d0     0.002611090154726d0     0.554295513911164d0
O1       0.000250680299277d0     0.003854690048263d0     0.583483634554811d0
O1       0.001252353890226d0     0.502660994590825d0     0.585224278588894d0
O1       0.690359550494617d0     0.751605701292547d0     0.640132546608525d0
O1       0.690365438398754d0     0.255535687984801d0     0.640090900530649d0
O1       0.309869348723224d0     0.751523302556701d0     0.640053271960961d0
O1       0.309855130989430d0     0.255638467411869d0     0.639982213848560d0
O1       0.999965809309293d0     0.004109486580618d0     0.683716922117145d0
O1       0.996885086652042d0     0.503670696176791d0     0.692835399402323d0
Ti1      0.000123603383822d0     0.499897385958537d0     0.238512187198856d0
Ti1      0.000123603383822d0     0.999897385958537d0     0.238512187198856d0
Ti1      0.500142521004230d0     0.250038178055688d0     0.238522014307695d0
Ti1      0.500142521004230d0     0.750038178055688d0     0.238522014307695d0
Ti1      0.500743287094870d0     0.008384593068298d0     0.363881116732571d0
Ti1      0.504873834390156d0     0.508072824045597d0     0.364050061566829d0
Ti1      0.004297237259742d0     0.757869317047420d0     0.368095324947295d0
Ti1      0.003426764045606d0     0.267731757398444d0     0.371774627994951d0
Ti1      0.505857625651593d0     0.753018334326014d0     0.496304450606061d0
Ti1      0.505795020793059d0     0.253485583531752d0     0.496219022973365d0
Ti1      0.003808205672622d0     0.004649757900030d0     0.496642610655917d0
Ti1      0.004468934507673d0     0.505207389277797d0     0.507306665025769d0
Ti1      0.500817021559457d0     0.503787060884056d0     0.624516796554204d0
Ti1      0.502988521453899d0     0.003794050643720d0     0.625512221376214d0
Ti1      0.001479287642922d0     0.238025248120767d0     0.634050426773442d0
Ti1      0.001878550500888d0     0.773517572295465d0     0.635177913187750d0
N1       0.574950259183699d0     0.511627901630801d0     0.807324514539722d0
N1       0.415950159540370d0     0.495343065436469d0     0.793672988557906d0
K_POINTS automatic
4 4 1  0 0 0 
