&CONTROL
  calculation='relax',
  prefix='calc',
  pseudo_dir='/storage/coda1/p-amedford6/0/shared/rich_project_chbe-medford/medford-share/data/pseudos_module/espresso/nninc/pbe/van',
  outdir='.',
  tefield=.true.,
  dipfield=.true.,
  tprnfor=.true.,
  disk_io='none',
/
&SYSTEM
  ibrav=0,
  celldm(1)=1.8897261245650618d0,
  nat=51,
  ntyp=5,
  ecutwfc=29.39945797996531d00,
  ecutrho=293.9945797996531d00,
  nbnd=204,
  occupations='smearing',
  smearing='fd',
  degauss=0.007349864494991328d00,
  input_dft='BEEF-vdW',
  edir=3,
  emaxpos=0.9766092911287456d00,
  eopreg=0.025d00,
  eamp=0.0d00,
  nosym=.false.,
  noinv=.false.,
  nosym_evc=.false.,
  no_t_rev=.false.,
/
&ELECTRONS
  diagonalization='david',
  conv_thr=7.349864494991327e-08,
  mixing_beta=0.05d00,
  electron_maxstep=1000,
  startingpot='file',
  startingwfc='atomic',
/
&IONS
  ion_dynamics='ipi',
/
&CELL
  cell_dynamics='ipi',
/
CELL_PARAMETERS alat
    6.579727202290808d0     0.000000000000000d0     0.000000000000000d0
   -0.000775132442404d0     5.961596420607155d0     0.000000000000000d0
    0.000000000000000d0    -0.000000000000000d0    25.155947251439940d0
ATOMIC_SPECIES
Ti1 47.867d00 Ti.UPF
O1 15.999d00 O.UPF
N1 14.007d00 N.UPF
C1 12.011d00 C.UPF
H1 1.008d00 H.UPF
ATOMIC_POSITIONS {crystal}
Ti1      0.000123603383822d0     0.499897385958536d0     0.238512187198856d0
Ti1      0.500142521004230d0     0.250038178055688d0     0.238522014307695d0
O1       0.000095322930372d0     0.000084774873452d0     0.317452257936818d0
O1       0.500112315057126d0     0.000084209992886d0     0.290342007718641d0
O1       0.698270105622955d0     0.250236102495782d0     0.369213011426276d0
O1       0.301995368073695d0     0.249987007385122d0     0.369214717028816d0
Ti1      0.500198167309398d0     0.485761668506182d0     0.364758343030283d0
Ti1      0.000261424674789d0     0.248709163236136d0     0.368424970923767d0
O1       0.503381410168730d0     0.001866092140145d0     0.450431272609628d0
O1       0.001882992193933d0     0.999479849154423d0     0.422099495650131d0
O1       0.202615253919683d0     0.251796607851738d0     0.501126214656211d0
O1       0.807937583513396d0     0.250212497569244d0     0.501852576035578d0
Ti1      0.994500278503693d0     0.496485310226086d0     0.501499612650216d0
Ti1      0.490533953703542d0     0.252434698703001d0     0.496022510396464d0
O1       0.007167442274768d0     0.006112373430262d0     0.582481365195296d0
O1       0.503974166621339d0     0.003482953892768d0     0.553410383580069d0
O1       0.696269160625948d0     0.259515314622984d0     0.638276490422535d0
O1       0.318395480853049d0     0.259104851796212d0     0.638643650104946d0
Ti1      0.506984157425296d0     0.507241556505674d0     0.624244792721273d0
Ti1      0.006406783981016d0     0.262050907441673d0     0.629679563424743d0
O1       0.500093721748991d0     0.000084921243389d0     0.186906639369252d0
O1       0.006317958474613d0     0.009375872310539d0     0.684721842556163d0
O1       0.198268504441574d0     0.250236248865719d0     0.238667392858710d0
O1       0.801993766892314d0     0.249987153755059d0     0.238669098461250d0
Ti1      0.000123603383822d0     0.999897385958536d0     0.238512187198856d0
Ti1      0.500142521004230d0     0.750038178055688d0     0.238522014307695d0
O1       0.000095322930372d0     0.500084774873452d0     0.317452257936818d0
O1       0.500112315057126d0     0.500084209992886d0     0.290342007718641d0
O1       0.698270105622955d0     0.750236102495782d0     0.369213011426276d0
O1       0.301995368073695d0     0.749987007385122d0     0.369214717028816d0
Ti1      0.500001644927041d0     0.985370751416071d0     0.364779031055315d0
Ti1      0.000183276761494d0     0.748948988039575d0     0.368476322807288d0
O1       0.503140950851700d0     0.502478872158235d0     0.450370121395755d0
O1       0.001460782485842d0     0.499964783615161d0     0.422656139091726d0
O1       0.201805265175355d0     0.752798989973170d0     0.501564709547560d0
O1       0.808086819841959d0     0.751680947524815d0     0.502238066538046d0
Ti1      0.994548453222797d0     0.995795458710298d0     0.499293572969293d0
Ti1      0.490176018359484d0     0.752243621830521d0     0.496231130254705d0
O1       0.006455759068864d0     0.496902770063250d0     0.582221879224475d0
O1       0.504380388640528d0     0.504153006051512d0     0.552773725466600d0
O1       0.696131583297440d0     0.756941674831934d0     0.639119890321672d0
O1       0.318830002777177d0     0.757295489564571d0     0.639682176962270d0
Ti1      0.506403936569544d0     0.006700498399416d0     0.624849031650871d0
Ti1      0.006288012050368d0     0.787599603353130d0     0.640397961413039d0
O1       0.500093721748991d0     0.500084921243389d0     0.186906639369252d0
O1       0.198268504441574d0     0.750236248865719d0     0.238667392858710d0
O1       0.801993766892315d0     0.749987153755059d0     0.238669098461250d0
N1       0.009999123406144d0     0.502084594909881d0     0.691331424901643d0
C1       0.016636539786477d0     0.490181216125256d0     0.741264816338823d0
H1       0.018706041935019d0     0.640846992430565d0     0.766311942888239d0
H1       0.021578328630636d0     0.327918533176340d0     0.761751179319295d0
K_POINTS automatic
4 4 1  0 0 0 
