&CONTROL
  calculation='relax',
  prefix='calc',
  pseudo_dir='/storage/coda1/p-amedford6/0/shared/rich_project_chbe-medford/medford-share/data/pseudos_module/espresso/nninc/pbe/van',
  outdir='.',
  tefield=.true.,
  dipfield=.true.,
  tprnfor=.true.,
  disk_io='none',
/
&SYSTEM
  ibrav=0,
  celldm(1)=1.8897261245650618d0,
  nat=58,
  ntyp=5,
  ecutwfc=29.39945797996531d00,
  ecutrho=293.9945797996531d00,
  nbnd=212,
  occupations='smearing',
  smearing='fd',
  degauss=0.007349864494991328d00,
  input_dft='BEEF-vdW',
  edir=3,
  emaxpos=0.04986319326363864d00,
  eopreg=0.025d00,
  eamp=0.0d00,
  nosym=.false.,
  noinv=.false.,
  nosym_evc=.false.,
  no_t_rev=.false.,
/
&ELECTRONS
  diagonalization='david',
  conv_thr=7.349864494991327e-08,
  mixing_beta=0.05d00,
  electron_maxstep=1000,
  startingpot='file',
  startingwfc='atomic',
/
&IONS
  ion_dynamics='ipi',
/
&CELL
  cell_dynamics='ipi',
/
CELL_PARAMETERS alat
    6.579727202290808d0     0.000000000000000d0     0.000000000000000d0
   -0.000775132442404d0     5.961596420607155d0     0.000000000000000d0
    0.000000000000000d0    -0.000000000000000d0    25.155947251439940d0
ATOMIC_SPECIES
Ti1 47.867d00 Ti.UPF
O1 15.999d00 O.UPF
N1 14.007d00 N.UPF
C1 12.011d00 C.UPF
H1 1.008d00 H.UPF
ATOMIC_POSITIONS {crystal}
Ti1      0.000123603383822d0     0.499897385958536d0     0.238512187198856d0
Ti1      0.500142521004230d0     0.250038178055688d0     0.238522014307695d0
O1       0.000095322930372d0     0.000084774873452d0     0.317452257936818d0
O1       0.500112315057126d0     0.000084209992886d0     0.290342007718641d0
O1       0.698270105622955d0     0.250236102495782d0     0.369213011426276d0
O1       0.301995368073695d0     0.249987007385122d0     0.369214717028816d0
Ti1      0.500198167309398d0     0.485761668506182d0     0.364758343030283d0
Ti1      0.000261424674789d0     0.248709163236136d0     0.368424970923767d0
O1       0.500888041334320d0     0.994653975122939d0     0.448286423692453d0
O1       0.001882992193933d0     0.999479849154423d0     0.422099495650131d0
O1       0.196105033574110d0     0.245903244259824d0     0.501746039600952d0
O1       0.805977054268242d0     0.246418082419726d0     0.501956774855374d0
Ti1      0.997629650802692d0     0.511374008726405d0     0.505058508057814d0
Ti1      0.504720877846840d0     0.216544536674807d0     0.503412489139830d0
O1       0.001349368044719d0     0.999192064188146d0     0.581890149612764d0
O1       0.500692633774268d0     0.002515128164154d0     0.552010950670172d0
O1       0.689040148474974d0     0.261414005375101d0     0.637589020521858d0
O1       0.307715607317522d0     0.257974124017360d0     0.639430426218186d0
Ti1      0.495214149200093d0     0.505215051036445d0     0.622271714407701d0
Ti1      0.986669456943389d0     0.254955211962401d0     0.631566172734149d0
O1       0.500093721748991d0     0.000084921243389d0     0.186906639369252d0
O1       0.990416516244375d0     0.003623955610815d0     0.683532552119158d0
O1       0.198268504441574d0     0.250236248865719d0     0.238667392858710d0
O1       0.801993766892314d0     0.249987153755059d0     0.238669098461250d0
Ti1      0.000123603383822d0     0.999897385958536d0     0.238512187198856d0
Ti1      0.500142521004230d0     0.750038178055688d0     0.238522014307695d0
O1       0.000095322930372d0     0.500084774873452d0     0.317452257936818d0
O1       0.500112315057126d0     0.500084209992886d0     0.290342007718641d0
O1       0.698270105622955d0     0.750236102495782d0     0.369213011426276d0
O1       0.301995368073695d0     0.749987007385122d0     0.369214717028816d0
Ti1      0.500001644927041d0     0.985370751416071d0     0.364779031055315d0
Ti1      0.000183276761494d0     0.748948988039575d0     0.368476322807288d0
O1       0.500978717287554d0     0.504662048212203d0     0.446965245290193d0
O1       0.001460782485842d0     0.499964783615161d0     0.422656139091726d0
O1       0.195377698095424d0     0.746252881766341d0     0.501687453653559d0
O1       0.803750665793196d0     0.744181838258392d0     0.501844528551017d0
Ti1      0.007601522811532d0     0.011362246261722d0     0.503005311752252d0
Ti1      0.502048235161746d0     0.735897005754439d0     0.493364072122484d0
O1       0.998352910670070d0     0.495422002180281d0     0.582466798159072d0
O1       0.496980711488200d0     0.498520172015676d0     0.551379845370664d0
O1       0.687195462180527d0     0.744918419952936d0     0.638802028627786d0
O1       0.306058232785060d0     0.748120817832426d0     0.639673864259925d0
Ti1      0.488446824593473d0     0.003872677105337d0     0.649131191623935d0
Ti1      0.991536832432207d0     0.774972055323805d0     0.639030503236112d0
O1       0.500093721748991d0     0.500084921243389d0     0.186906639369252d0
O1       0.198268504441574d0     0.750236248865719d0     0.238667392858710d0
O1       0.801993766892315d0     0.749987153755059d0     0.238669098461250d0
N1       0.003878869798903d0     0.495783063666809d0     0.688688332725817d0
N1       0.969277396289098d0     0.427098378193264d0     0.885231720818134d0
C1       0.032152375923931d0     0.476120921847635d0     0.743824945910643d0
H1       0.059663697752866d0     0.638654921096943d0     0.763701116232816d0
H1       0.897412454364222d0     0.397683360222698d0     0.762136291663373d0
H1       0.155574083451817d0     0.357992506640154d0     0.752760389501864d0
H1       0.926097990352135d0     0.541629645677991d0     0.912819747158025d0
H1       0.034645038797775d0     0.297835303615984d0     0.905097188656816d0
H1       0.080337151863940d0     0.499626164706930d0     0.863135834346820d0
O1       0.514281171325848d0     0.008894769629793d0     0.721588740946455d0
H1       0.649365571142999d0     0.988543898191581d0     0.736300317177123d0
K_POINTS automatic
4 4 1  0 0 0 
