&CONTROL
  calculation='relax',
  prefix='calc',
  pseudo_dir='/storage/coda1/p-amedford6/0/shared/rich_project_chbe-medford/medford-share/data/pseudos_module/espresso/nninc/pbe/van',
  outdir='.',
  tefield=.true.,
  dipfield=.true.,
  tprnfor=.true.,
  disk_io='none',
/
&SYSTEM
  ibrav=0,
  celldm(1)=1.8897261245650618d0,
  nat=55,
  ntyp=5,
  ecutwfc=29.39945797996531d00,
  ecutrho=293.9945797996531d00,
  nbnd=211,
  occupations='smearing',
  smearing='fd',
  degauss=0.007349864494991328d00,
  input_dft='BEEF-vdW',
  edir=3,
  emaxpos=0.9908336623119056d00,
  eopreg=0.025d00,
  eamp=0.0d00,
  nosym=.false.,
  noinv=.false.,
  nosym_evc=.false.,
  no_t_rev=.false.,
/
&ELECTRONS
  diagonalization='david',
  conv_thr=7.349864494991327e-08,
  mixing_beta=0.05d00,
  electron_maxstep=1000,
  startingpot='file',
  startingwfc='atomic',
/
&IONS
  ion_dynamics='ipi',
/
&CELL
  cell_dynamics='ipi',
/
CELL_PARAMETERS alat
    6.579727202290808d0     0.000000000000000d0     0.000000000000000d0
   -0.000775132442404d0     5.961596420607155d0     0.000000000000000d0
    0.000000000000000d0    -0.000000000000000d0    25.155947251439940d0
ATOMIC_SPECIES
Ti1 47.867d00 Ti.UPF
O1 15.999d00 O.UPF
N1 14.007d00 N.UPF
C1 12.011d00 C.UPF
H1 1.008d00 H.UPF
ATOMIC_POSITIONS {crystal}
Ti1      0.000123603383822d0     0.499897385958536d0     0.238512187198856d0
Ti1      0.500142521004230d0     0.250038178055688d0     0.238522014307695d0
O1       0.000095322930372d0     0.000084774873452d0     0.317452257936818d0
O1       0.500112315057126d0     0.000084209992886d0     0.290342007718641d0
O1       0.698270105622955d0     0.250236102495782d0     0.369213011426276d0
O1       0.301995368073695d0     0.249987007385122d0     0.369214717028816d0
Ti1      0.500198167309398d0     0.485761668506182d0     0.364758343030283d0
Ti1      0.000261424674789d0     0.248709163236136d0     0.368424970923767d0
O1       0.501696271738339d0     0.996684648807335d0     0.448194182568004d0
O1       0.001882992193933d0     0.999479849154423d0     0.422099495650131d0
O1       0.196047499393395d0     0.249312080544749d0     0.501718235026134d0
O1       0.806322777354186d0     0.252009537335077d0     0.502258961412661d0
Ti1      0.002276400367936d0     0.477693485475972d0     0.505648556361127d0
Ti1      0.502529354653622d0     0.219436629346696d0     0.502792578596641d0
O1       0.003704228824237d0     0.999885926105044d0     0.581472173715196d0
O1       0.501296740364974d0     0.006695224861448d0     0.551558755675838d0
O1       0.696314593497865d0     0.265982199644332d0     0.638522658430361d0
O1       0.308931583617392d0     0.253250985237083d0     0.636422148036137d0
Ti1      0.498178673150182d0     0.495576274668041d0     0.621189348668179d0
Ti1      0.995971038804195d0     0.220608512350233d0     0.635129882098153d0
O1       0.500093721748991d0     0.000084921243389d0     0.186906639369252d0
O1       0.988902117326825d0     0.994124877836663d0     0.680931815255545d0
O1       0.198268504441574d0     0.250236248865719d0     0.238667392858710d0
O1       0.801993766892314d0     0.249987153755059d0     0.238669098461250d0
Ti1      0.000123603383822d0     0.999897385958536d0     0.238512187198856d0
Ti1      0.500142521004230d0     0.750038178055688d0     0.238522014307695d0
O1       0.000095322930372d0     0.500084774873452d0     0.317452257936818d0
O1       0.500112315057126d0     0.500084209992886d0     0.290342007718641d0
O1       0.698270105622955d0     0.750236102495782d0     0.369213011426276d0
O1       0.301995368073695d0     0.749987007385122d0     0.369214717028816d0
Ti1      0.500001644927041d0     0.985370751416071d0     0.364779031055315d0
Ti1      0.000183276761494d0     0.748948988039575d0     0.368476322807288d0
O1       0.501490173613348d0     0.507285894064099d0     0.446835977852329d0
O1       0.001460782485842d0     0.499964783615161d0     0.422656139091726d0
O1       0.197245447351752d0     0.749883872394336d0     0.501836218861966d0
O1       0.805715770854219d0     0.749711233928365d0     0.502228044124729d0
Ti1      0.004510936217607d0     0.978167374147653d0     0.500503055327203d0
Ti1      0.504507574700519d0     0.737335899591171d0     0.493311673996430d0
O1       0.004807113430935d0     0.499041229161897d0     0.585390620268016d0
O1       0.497996070459706d0     0.497663862824306d0     0.550002162213291d0
O1       0.689450573505365d0     0.745705114130703d0     0.632315204416160d0
O1       0.312746303009130d0     0.745269527835166d0     0.637780146787976d0
Ti1      0.489300187177005d0     0.992048155998045d0     0.645655489410919d0
Ti1      0.982545479110748d0     0.752156390109581d0     0.632300980848562d0
O1       0.500093721748991d0     0.500084921243389d0     0.186906639369252d0
O1       0.198268504441574d0     0.750236248865719d0     0.238667392858710d0
O1       0.801993766892315d0     0.749987153755059d0     0.238669098461250d0
N1       0.038036654218428d0     0.392837498481782d0     0.715191567223884d0
C1       0.094400484928533d0     0.313685487058099d0     0.760831224587838d0
H1       0.113002339483635d0     0.424943283429366d0     0.794760685254559d0
H1       0.127677025590389d0     0.137366052483068d0     0.763484538930382d0
N1       0.997964461680704d0     0.605820727726050d0     0.706602568494327d0
H1       0.019841436542914d0     0.708461579530968d0     0.738692501388152d0
O1       0.512506452462160d0     0.991175479778542d0     0.718460914707171d0
H1       0.633102758018209d0     0.059362612053071d0     0.733625162289826d0
K_POINTS automatic
4 4 1  0 0 0 
