&CONTROL
  calculation='relax',
  prefix='calc',
  pseudo_dir='/storage/coda1/p-amedford6/0/shared/rich_project_chbe-medford/medford-share/data/pseudos_module/espresso/nninc/pbe/van',
  outdir='.',
  tefield=.true.,
  dipfield=.true.,
  tprnfor=.true.,
  disk_io='none',
/
&SYSTEM
  ibrav=0,
  celldm(1)=1.8897261245650618d0,
  nat=54,
  ntyp=4,
  ecutwfc=29.39945797996531d00,
  ecutrho=293.9945797996531d00,
  nbnd=209,
  occupations='smearing',
  smearing='fd',
  degauss=0.007349864494991328d00,
  input_dft='BEEF-vdW',
  edir=3,
  emaxpos=0.9594063847979559d00,
  eopreg=0.025d00,
  eamp=0.0d00,
  nosym=.false.,
  noinv=.false.,
  nosym_evc=.false.,
  no_t_rev=.false.,
/
&ELECTRONS
  diagonalization='david',
  conv_thr=7.349864494991327e-08,
  mixing_beta=0.05d00,
  electron_maxstep=1000,
  startingpot='file',
  startingwfc='atomic',
/
&IONS
  ion_dynamics='ipi',
/
&CELL
  cell_dynamics='ipi',
/
CELL_PARAMETERS alat
    6.579727202290808d0     0.000000000000000d0     0.000000000000000d0
   -0.000775132442404d0     5.961596420607155d0     0.000000000000000d0
    0.000000000000000d0    -0.000000000000000d0    25.155947251439940d0
ATOMIC_SPECIES
Ti1 47.867d00 Ti.UPF
O1 15.999d00 O.UPF
C1 12.011d00 C.UPF
H1 1.008d00 H.UPF
ATOMIC_POSITIONS {crystal}
Ti1      0.000123603383822d0     0.499897385958537d0     0.238512187198856d0
Ti1      0.500142521004230d0     0.250038178055688d0     0.238522014307695d0
O1       0.000095322930372d0     0.000084774873452d0     0.317452257936818d0
O1       0.500112315057126d0     0.000084209992886d0     0.290342007718641d0
O1       0.698270105622955d0     0.250236102495782d0     0.369213011426276d0
O1       0.301995368073695d0     0.249987007385122d0     0.369214717028816d0
Ti1      0.487219569556985d0     0.507948160561933d0     0.366867952356821d0
Ti1      0.984707923552166d0     0.258696459463967d0     0.370675597525948d0
O1       0.503544250139888d0     0.001283640660635d0     0.449767818697211d0
O1       0.000552306631595d0     0.001232138921966d0     0.419533800689851d0
O1       0.195319981330849d0     0.256010634248313d0     0.499596620236238d0
O1       0.809935370861243d0     0.246367847493319d0     0.501529421916087d0
Ti1      0.007578729491231d0     0.511089451295082d0     0.507026145178820d0
Ti1      0.499222807649419d0     0.273988372214554d0     0.498126690590414d0
O1       0.029543584930863d0     0.001972387832368d0     0.580610299507799d0
O1       0.485598681043626d0     0.996762314593796d0     0.553119471120986d0
O1       0.708619649573731d0     0.236337033266246d0     0.626803116341375d0
O1       0.310506096617831d0     0.274287163799778d0     0.639565662472492d0
Ti1      0.522706935503564d0     0.494131140057324d0     0.631009437181313d0
Ti1      0.019713097757809d0     0.231722754751528d0     0.630732069991805d0
O1       0.500093721748991d0     0.000084921243389d0     0.186906639369252d0
O1       0.012869313740144d0     0.002429045458679d0     0.680118374368151d0
O1       0.198268504441574d0     0.250236248865719d0     0.238667392858710d0
O1       0.801993766892314d0     0.249987153755059d0     0.238669098461250d0
Ti1      0.000123603383822d0     0.999897385958537d0     0.238512187198856d0
Ti1      0.500142521004230d0     0.750038178055688d0     0.238522014307695d0
O1       0.000095322930372d0     0.500084774873452d0     0.317452257936818d0
O1       0.500112315057126d0     0.500084209992886d0     0.290342007718641d0
O1       0.698270105622955d0     0.750236102495782d0     0.369213011426276d0
O1       0.301995368073695d0     0.749987007385122d0     0.369214717028816d0
Ti1      0.489760152050660d0     0.007897251572365d0     0.366634307450800d0
Ti1      0.984319010715881d0     0.749199523491050d0     0.370202477838498d0
O1       0.503035930693823d0     0.497578250205331d0     0.448609736540169d0
O1       0.996936054475468d0     0.501485791011553d0     0.418638435144813d0
O1       0.196400274781559d0     0.746116897525237d0     0.499719920535092d0
O1       0.811211358508527d0     0.756914055512171d0     0.502081057819185d0
Ti1      0.996535339072153d0     0.010740259848648d0     0.495468828211906d0
Ti1      0.501216596382346d0     0.778108604431514d0     0.502752493098106d0
O1       0.010011007862985d0     0.502273704640789d0     0.582876726566573d0
O1       0.511835880131115d0     0.499756392713064d0     0.551725657555932d0
O1       0.709159561241842d0     0.764656610243531d0     0.627466041214089d0
O1       0.310650673930833d0     0.730125162507867d0     0.638614447064921d0
Ti1      0.523595930606015d0     0.994562533159185d0     0.636596750674843d0
Ti1      0.023689627857010d0     0.771051849974639d0     0.630797731204448d0
O1       0.500093721748991d0     0.500084921243389d0     0.186906639369252d0
O1       0.198268504441574d0     0.750236248865719d0     0.238667392858710d0
O1       0.801993766892315d0     0.749987153755059d0     0.238669098461250d0
C1       0.701560603453421d0     0.500069624448080d0     0.708495883957321d0
O1       0.926640410643729d0     0.501670567231356d0     0.691871703873294d0
H1       0.009173920822784d0     0.501661485258985d0     0.723917331749232d0
H1       0.682755499836349d0     0.347768098111526d0     0.731906130226660d0
H1       0.680519898833881d0     0.652127273038379d0     0.731858866145323d0
O1       0.503602960724309d0     0.998573602501762d0     0.710599134105165d0
H1       0.369121126616003d0     0.018172850767535d0     0.725644938521989d0
K_POINTS automatic
4 4 1  0 0 0 
