&CONTROL
  calculation='relax',
  prefix='calc',
  pseudo_dir='/storage/coda1/p-amedford6/0/shared/rich_project_chbe-medford/medford-share/data/pseudos_module/espresso/nninc/pbe/van',
  outdir='.',
  tefield=.true.,
  dipfield=.true.,
  tprnfor=.true.,
  disk_io='none',
/
&SYSTEM
  ibrav=0,
  celldm(1)=1.8897261245650618d0,
  nat=53,
  ntyp=5,
  ecutwfc=29.39945797996531d00,
  ecutrho=293.9945797996531d00,
  nbnd=210,
  occupations='smearing',
  smearing='fd',
  degauss=0.007349864494991328d00,
  input_dft='BEEF-vdW',
  edir=3,
  emaxpos=0.9836621365824508d00,
  eopreg=0.025d00,
  eamp=0.0d00,
  nosym=.false.,
  noinv=.false.,
  nosym_evc=.false.,
  no_t_rev=.false.,
/
&ELECTRONS
  diagonalization='david',
  conv_thr=7.349864494991327e-08,
  mixing_beta=0.05d00,
  electron_maxstep=1000,
  startingwfc='atomic',
/
&IONS
  ion_dynamics='ipi',
/
&CELL
  cell_dynamics='ipi',
/
CELL_PARAMETERS alat
    6.579727202290808d0     0.000000000000000d0     0.000000000000000d0
   -0.000775132442404d0     5.961596420607155d0     0.000000000000000d0
    0.000000000000000d0    -0.000000000000000d0    25.155947251439940d0
ATOMIC_SPECIES
C1 12.011d00 C.UPF
H1 1.008d00 H.UPF
O1 15.999d00 O.UPF
Ti1 47.867d00 Ti.UPF
N1 14.007d00 N.UPF
ATOMIC_POSITIONS {crystal}
C1       0.916956608710273d0     0.503402973811055d0     0.740665602595840d0
H1       0.882465704093223d0     0.661754251502306d0     0.759932626026595d0
H1       0.894080624207175d0     0.343386716452429d0     0.760383641200179d0
O1       0.500093721748991d0     0.000084921243389d0     0.186906639369252d0
O1       0.500093721748991d0     0.500084921243389d0     0.186906639369252d0
O1       0.198268504441574d0     0.250236248865719d0     0.238667392858710d0
O1       0.198268504441574d0     0.750236248865719d0     0.238667392858710d0
O1       0.801993766892314d0     0.249987153755059d0     0.238669098461250d0
O1       0.801993766892315d0     0.749987153755059d0     0.238669098461250d0
O1       0.500112315057126d0     0.000084209992886d0     0.290342007718641d0
O1       0.500112315057126d0     0.500084209992886d0     0.290342007718641d0
O1       0.000095322930372d0     0.000084774873452d0     0.317452257936818d0
O1       0.000095322930372d0     0.500084774873452d0     0.317452257936818d0
O1       0.698270105622955d0     0.250236102495782d0     0.369213011426276d0
O1       0.698270105622955d0     0.750236102495782d0     0.369213011426276d0
O1       0.301995368073695d0     0.249987007385122d0     0.369214717028816d0
O1       0.301995368073695d0     0.749987007385122d0     0.369214717028816d0
O1       0.000392814293446d0     0.502383389393784d0     0.420566220778829d0
O1       0.000568281230197d0     0.002283209646317d0     0.421535271572442d0
O1       0.499589239659632d0     0.503613134660512d0     0.450919187829711d0
O1       0.499200203105466d0     0.003646207009643d0     0.451084746470645d0
O1       0.802324845521549d0     0.253981240445654d0     0.502334793260590d0
O1       0.802400014256823d0     0.753575636524015d0     0.502463816376165d0
O1       0.194365645886466d0     0.254002668123838d0     0.502517629976996d0
O1       0.194439114239617d0     0.754156857964826d0     0.502686256878124d0
O1       0.497968048717867d0     0.504360677290806d0     0.553427547248842d0
O1       0.498816599575858d0     0.004522750394085d0     0.554392071541867d0
O1       0.998751846401437d0     0.005163679103530d0     0.583829974316863d0
O1       0.000658068627424d0     0.505082036454852d0     0.585180540940705d0
O1       0.686934628374452d0     0.753590148269557d0     0.639729058594503d0
O1       0.686901566275867d0     0.257228509976635d0     0.639756049451540d0
O1       0.306532405278457d0     0.752921465611434d0     0.640438281754191d0
O1       0.306451894479794d0     0.257972341624673d0     0.640452992543187d0
O1       0.994889533768492d0     0.005256209096640d0     0.684208524002143d0
O1       0.984611781355406d0     0.505134703763672d0     0.693024486159180d0
Ti1      0.000123603383822d0     0.499897385958537d0     0.238512187198856d0
Ti1      0.000123603383822d0     0.999897385958537d0     0.238512187198856d0
Ti1      0.500142521004230d0     0.250038178055688d0     0.238522014307695d0
Ti1      0.500142521004230d0     0.750038178055688d0     0.238522014307695d0
Ti1      0.500690354268985d0     0.009848068095253d0     0.363819607772321d0
Ti1      0.503161778366429d0     0.509262613410435d0     0.363988442524553d0
Ti1      0.003002705430647d0     0.760012382777569d0     0.368229740747411d0
Ti1      0.002362892775889d0     0.269782890477380d0     0.372077887875874d0
Ti1      0.506085462250080d0     0.754107764255359d0     0.496338274885625d0
Ti1      0.506264215643591d0     0.254659053758338d0     0.496421637872328d0
Ti1      0.004554795636176d0     0.006217688840296d0     0.496884939055904d0
Ti1      0.003088010427999d0     0.506544710835943d0     0.508452825695053d0
Ti1      0.497339269969664d0     0.505521815717398d0     0.624766232362929d0
Ti1      0.502317340487313d0     0.005542126898389d0     0.625587094945069d0
Ti1      0.002868904459589d0     0.237659384780891d0     0.635199848613840d0
Ti1      0.002031349482776d0     0.773541812109402d0     0.635376197309966d0
N1       0.719380028400471d0     0.503402973811055d0     0.780417633795649d0
N1       0.547643425155494d0     0.503402973811055d0     0.780417633795649d0
K_POINTS automatic
4 4 1  0 0 0 
