&CONTROL
  calculation='relax',
  prefix='calc',
  pseudo_dir='/storage/coda1/p-amedford6/0/shared/rich_project_chbe-medford/medford-share/data/pseudos_module/espresso/nninc/pbe/van',
  outdir='.',
  tefield=.true.,
  dipfield=.true.,
  tprnfor=.true.,
  disk_io='none',
/
&SYSTEM
  ibrav=0,
  celldm(1)=1.8897261245650618d0,
  nat=53,
  ntyp=5,
  ecutwfc=29.39945797996531d00,
  ecutrho=293.9945797996531d00,
  nbnd=210,
  occupations='smearing',
  smearing='fd',
  degauss=0.007349864494991328d00,
  input_dft='BEEF-vdW',
  edir=3,
  emaxpos=0.01906478752282692d00,
  eopreg=0.025d00,
  eamp=0.0d00,
  nosym=.false.,
  noinv=.false.,
  nosym_evc=.false.,
  no_t_rev=.false.,
/
&ELECTRONS
  diagonalization='david',
  conv_thr=7.349864494991327e-08,
  mixing_beta=0.05d00,
  electron_maxstep=1000,
  startingwfc='atomic',
/
&IONS
  ion_dynamics='ipi',
/
&CELL
  cell_dynamics='ipi',
/
CELL_PARAMETERS alat
    6.579727202290808d0     0.000000000000000d0     0.000000000000000d0
   -0.000775132442404d0     5.961596420607155d0     0.000000000000000d0
    0.000000000000000d0    -0.000000000000000d0    25.155947251439940d0
ATOMIC_SPECIES
Ti1 47.867d00 Ti.UPF
O1 15.999d00 O.UPF
N1 14.007d00 N.UPF
C1 12.011d00 C.UPF
H1 1.008d00 H.UPF
ATOMIC_POSITIONS {crystal}
Ti1      0.000123603383822d0     0.499897385958536d0     0.238512187198856d0
Ti1      0.500142521004230d0     0.250038178055688d0     0.238522014307695d0
O1       0.000095322930372d0     0.000084774873452d0     0.317452257936818d0
O1       0.500112315057126d0     0.000084209992886d0     0.290342007718641d0
O1       0.698270105622955d0     0.250236102495782d0     0.369213011426276d0
O1       0.301995368073695d0     0.249987007385122d0     0.369214717028816d0
Ti1      0.500094423350072d0     0.499217984235923d0     0.364001619179554d0
Ti1      0.000243031311820d0     0.254362561244405d0     0.370797898020082d0
O1       0.502637986589125d0     0.000074529187200d0     0.450514778366027d0
O1       0.000373918887078d0     0.999920290561378d0     0.421319943178175d0
O1       0.200314103486838d0     0.249304056272593d0     0.501578064341697d0
O1       0.807820272463447d0     0.249413266496307d0     0.502013303897548d0
Ti1      0.001783983081954d0     0.499460537276628d0     0.509263432502042d0
Ti1      0.497802822821460d0     0.250853712974562d0     0.495789953081062d0
O1       0.005030015581159d0     0.998568276801755d0     0.582881675719907d0
O1       0.504742439471851d0     0.999998266407839d0     0.552673474425510d0
O1       0.697783364500756d0     0.250990800643594d0     0.637863296752079d0
O1       0.320349480591888d0     0.249523648557005d0     0.637113324898598d0
Ti1      0.498555057002192d0     0.499951291675619d0     0.624656644479356d0
Ti1      0.994513408838512d0     0.236363277053576d0     0.636570404252259d0
O1       0.500093721748991d0     0.000084921243389d0     0.186906639369252d0
O1       0.008138575186257d0     0.000583950006333d0     0.683500030188301d0
O1       0.198268504441574d0     0.250236248865719d0     0.238667392858710d0
O1       0.801993766892314d0     0.249987153755059d0     0.238669098461250d0
Ti1      0.000123603383822d0     0.999897385958536d0     0.238512187198856d0
Ti1      0.500142521004230d0     0.750038178055688d0     0.238522014307695d0
O1       0.000095322930372d0     0.500084774873452d0     0.317452257936818d0
O1       0.500112315057126d0     0.500084209992886d0     0.290342007718641d0
O1       0.698270105622955d0     0.750236102495782d0     0.369213011426276d0
O1       0.301995368073695d0     0.749987007385122d0     0.369214717028816d0
Ti1      0.500522099926981d0     0.999213328440987d0     0.363850808621274d0
Ti1      0.000224668288836d0     0.745784154986713d0     0.370763870663362d0
O1       0.502568403331952d0     0.500129824894499d0     0.450547578481166d0
O1       0.000726164446453d0     0.500008459830145d0     0.419020383319582d0
O1       0.200334928779690d0     0.750081756878528d0     0.501586574464372d0
O1       0.807843664795566d0     0.749897317792498d0     0.502041830875004d0
Ti1      0.997882657344728d0     0.999546918783323d0     0.499170191170296d0
Ti1      0.497757287958055d0     0.749640878283193d0     0.495846759803360d0
O1       0.007037587393461d0     0.498714647871999d0     0.582576859432012d0
O1       0.503204538524320d0     0.500311039060097d0     0.552883056134347d0
O1       0.697996912323518d0     0.749355754758836d0     0.638215356066199d0
O1       0.319446639862304d0     0.751088431503981d0     0.637097724388947d0
Ti1      0.501013204853448d0     0.000479151696575d0     0.624247060836934d0
Ti1      0.996346935435224d0     0.767968281600445d0     0.637136424189740d0
O1       0.500093721748991d0     0.500084921243389d0     0.186906639369252d0
O1       0.018488776570646d0     0.498733470206342d0     0.685370599722726d0
O1       0.198268504441574d0     0.750236248865719d0     0.238667392858710d0
O1       0.801993766892315d0     0.749987153755059d0     0.238669098461250d0
N1       0.067572421962905d0     0.522826214282376d0     0.771988963604880d0
N1       0.925717564445907d0     0.488455831131665d0     0.737383366259969d0
C1       0.009118986628763d0     0.550808014210995d0     0.821469616688858d0
H1       0.849450433173036d0     0.562445993531538d0     0.832260804194253d0
H1       0.126697143908696d0     0.564899113371446d0     0.851222935676401d0
K_POINTS automatic
4 4 1  0 0 0 
