&CONTROL
  calculation='relax',
  prefix='calc',
  pseudo_dir='/storage/coda1/p-amedford6/0/shared/rich_project_chbe-medford/medford-share/data/pseudos_module/espresso/nninc/pbe/van',
  outdir='.',
  tefield=.true.,
  dipfield=.true.,
  tprnfor=.true.,
  disk_io='none',
/
&SYSTEM
  ibrav=0,
  celldm(1)=1.8897261245650618d0,
  nat=56,
  ntyp=5,
  ecutwfc=29.39945797996531d00,
  ecutrho=293.9945797996531d00,
  nbnd=209,
  occupations='smearing',
  smearing='fd',
  degauss=0.007349864494991328d00,
  nspin=2,
  starting_magnetization(1)=0.0d00,
  starting_magnetization(2)=0.0d00,
  starting_magnetization(3)=0.0d00,
  starting_magnetization(4)=0.025d00,
  starting_magnetization(5)=0.0d00,
  input_dft='BEEF-vdW',
  edir=3,
  emaxpos=0.9807805926256936d00,
  eopreg=0.025d00,
  eamp=0.0d00,
  nosym=.false.,
  noinv=.false.,
  nosym_evc=.false.,
  no_t_rev=.false.,
/
&ELECTRONS
  diagonalization='david',
  conv_thr=7.349864494991327e-08,
  mixing_beta=0.05d00,
  electron_maxstep=1000,
  startingpot='file',
  startingwfc='atomic',
/
&IONS
  ion_dynamics='ipi',
/
&CELL
  cell_dynamics='ipi',
/
CELL_PARAMETERS alat
    6.579727202290808d0     0.000000000000000d0     0.000000000000000d0
   -0.000775132442404d0     5.961596420607155d0     0.000000000000000d0
    0.000000000000000d0    -0.000000000000000d0    25.155947251439940d0
ATOMIC_SPECIES
Ti1 47.867d00 Ti.UPF
O1 15.999d00 O.UPF
N1 14.007d00 N.UPF
C1 12.011d00 C.UPF
H1 1.008d00 H.UPF
ATOMIC_POSITIONS {crystal}
Ti1      0.000123603383822d0     0.499897385958536d0     0.238512187198856d0
Ti1      0.500142521004230d0     0.250038178055688d0     0.238522014307695d0
O1       0.000095322930372d0     0.000084774873452d0     0.317452257936818d0
O1       0.500112315057126d0     0.000084209992886d0     0.290342007718641d0
O1       0.698270105622955d0     0.250236102495782d0     0.369213011426276d0
O1       0.301995368073695d0     0.249987007385122d0     0.369214717028816d0
Ti1      0.500198167309398d0     0.485761668506182d0     0.364758343030283d0
Ti1      0.000261424674789d0     0.248709163236136d0     0.368424970923767d0
O1       0.501200006581680d0     0.997275035247612d0     0.451158031532351d0
O1       0.001882992193933d0     0.999479849154423d0     0.422099495650131d0
O1       0.198503154565996d0     0.247197923840667d0     0.503429473846405d0
O1       0.805591365634557d0     0.247837697674148d0     0.502701875690396d0
Ti1      0.002600817864942d0     0.496932408258135d0     0.498920104058591d0
Ti1      0.503565749064599d0     0.246788126832307d0     0.496541747034743d0
O1       0.995866902141761d0     0.995131061250615d0     0.586608385455898d0
O1       0.506249574027565d0     0.996871273429681d0     0.555826396101366d0
O1       0.687656054752310d0     0.252553298050280d0     0.645241741438859d0
O1       0.306590818466639d0     0.245462943184067d0     0.641512256691139d0
Ti1      0.494002839862060d0     0.490516695404970d0     0.623792727744302d0
Ti1      0.994610819795718d0     0.214368837998839d0     0.642058963214381d0
O1       0.500093721748991d0     0.000084921243389d0     0.186906639369252d0
O1       0.996213917087844d0     0.999427550495407d0     0.689561479539887d0
O1       0.198268504441574d0     0.250236248865719d0     0.238667392858710d0
O1       0.801993766892314d0     0.249987153755059d0     0.238669098461250d0
Ti1      0.000123603383822d0     0.999897385958536d0     0.238512187198856d0
Ti1      0.500142521004230d0     0.750038178055688d0     0.238522014307695d0
O1       0.000095322930372d0     0.500084774873452d0     0.317452257936818d0
O1       0.500112315057126d0     0.500084209992886d0     0.290342007718641d0
O1       0.698270105622955d0     0.750236102495782d0     0.369213011426276d0
O1       0.301995368073695d0     0.749987007385122d0     0.369214717028816d0
Ti1      0.500001644927041d0     0.985370751416071d0     0.364779031055315d0
Ti1      0.000183276761494d0     0.748948988039575d0     0.368476322807288d0
O1       0.501027738693501d0     0.497367990089035d0     0.450903822511069d0
O1       0.001460782485842d0     0.499964783615161d0     0.422656139091726d0
O1       0.198821768647572d0     0.748813092007205d0     0.503434969949474d0
O1       0.805310405686643d0     0.747980048516032d0     0.502584489235264d0
Ti1      0.003077108788446d0     0.997877854117086d0     0.497680849798022d0
Ti1      0.503915941321523d0     0.746820696873806d0     0.496686467320120d0
O1       0.998622619170522d0     0.501024209798600d0     0.588482947315189d0
O1       0.503420014976646d0     0.496120789405985d0     0.553367483122202d0
O1       0.687397996503116d0     0.737225970125607d0     0.645934198802532d0
O1       0.309472723488037d0     0.743757285773580d0     0.641244168911366d0
Ti1      0.502537532898415d0     0.997941235220255d0     0.626799703947491d0
Ti1      0.014660223350833d0     0.742980446761157d0     0.630872570044505d0
O1       0.500093721748991d0     0.500084921243389d0     0.186906639369252d0
O1       0.198268504441574d0     0.750236248865719d0     0.238667392858710d0
O1       0.801993766892315d0     0.749987153755059d0     0.238669098461250d0
N1       0.009491725687834d0     0.509520330763961d0     0.703204520914117d0
C1       0.169007540483358d0     0.498074767837845d0     0.743302333539872d0
H1       0.196910089176857d0     0.663111651340285d0     0.761583140562916d0
H1       0.131170936594261d0     0.376181333261182d0     0.774654545882135d0
H1       0.306507747629263d0     0.439965491420950d0     0.724714769144288d0
N1       0.825013582571725d0     0.566035129584105d0     0.731570105237406d0
H1       0.852755127277403d0     0.691079895631695d0     0.758677855548801d0
H1       0.728589647423369d0     0.638697453161296d0     0.701209442873810d0
H1       0.761330609957159d0     0.429388535540072d0     0.750035107290698d0
K_POINTS automatic
4 4 1  0 0 0 
