&CONTROL
  calculation='relax',
  prefix='calc',
  pseudo_dir='/storage/coda1/p-amedford6/0/shared/rich_project_chbe-medford/medford-share/data/pseudos_module/espresso/nninc/pbe/van',
  outdir='.',
  tefield=.true.,
  dipfield=.true.,
  tprnfor=.true.,
  disk_io='none',
/
&SYSTEM
  ibrav=0,
  celldm(1)=1.8897261245650618d0,
  nat=53,
  ntyp=5,
  ecutwfc=29.39945797996531d00,
  ecutrho=293.9945797996531d00,
  nbnd=210,
  occupations='smearing',
  smearing='fd',
  degauss=0.007349864494991328d00,
  input_dft='BEEF-vdW',
  edir=3,
  emaxpos=0.9734167171109642d00,
  eopreg=0.025d00,
  eamp=0.0d00,
  nosym=.false.,
  noinv=.false.,
  nosym_evc=.false.,
  no_t_rev=.false.,
/
&ELECTRONS
  diagonalization='david',
  conv_thr=7.349864494991327e-08,
  mixing_beta=0.05d00,
  electron_maxstep=1000,
  startingpot='file',
  startingwfc='atomic',
/
&IONS
  ion_dynamics='ipi',
/
&CELL
  cell_dynamics='ipi',
/
CELL_PARAMETERS alat
    6.579727202290808d0     0.000000000000000d0     0.000000000000000d0
   -0.000775132442404d0     5.961596420607155d0     0.000000000000000d0
    0.000000000000000d0    -0.000000000000000d0    25.155947251439940d0
ATOMIC_SPECIES
Ti1 47.867d00 Ti.UPF
O1 15.999d00 O.UPF
C1 12.011d00 C.UPF
H1 1.008d00 H.UPF
N1 14.007d00 N.UPF
ATOMIC_POSITIONS {crystal}
Ti1      0.000123603383822d0     0.499897385958536d0     0.238512187198856d0
Ti1      0.500142521004230d0     0.250038178055688d0     0.238522014307695d0
O1       0.000095322930372d0     0.000084774873452d0     0.317452257936818d0
O1       0.500112315057126d0     0.000084209992886d0     0.290342007718641d0
O1       0.698270105622955d0     0.250236102495782d0     0.369213011426276d0
O1       0.301995368073695d0     0.249987007385122d0     0.369214717028816d0
Ti1      0.500198167309398d0     0.485761668506182d0     0.364758343030283d0
Ti1      0.000261424674789d0     0.248709163236136d0     0.368424970923767d0
O1       0.498111754660396d0     0.997465809097734d0     0.447933363116516d0
O1       0.001882992193933d0     0.999479849154423d0     0.422099495650131d0
O1       0.193839597945657d0     0.250326273839672d0     0.501953783931965d0
O1       0.803285462532489d0     0.249250330276237d0     0.501497794806850d0
Ti1      0.998837305612523d0     0.477605991165926d0     0.505344375422663d0
Ti1      0.497832733529962d0     0.220122123482325d0     0.502833837136767d0
O1       0.997193281154816d0     0.999936612839959d0     0.581965258500999d0
O1       0.498058365806662d0     0.005721257029711d0     0.551092083987641d0
O1       0.684344412739430d0     0.256034463158302d0     0.639131698002971d0
O1       0.301809010969846d0     0.257876239087413d0     0.638198586840246d0
Ti1      0.496210152157418d0     0.503636627502989d0     0.621730020425064d0
Ti1      0.004693593662008d0     0.245516172229268d0     0.631524925763005d0
O1       0.500093721748991d0     0.000084921243389d0     0.186906639369252d0
O1       0.991691176004703d0     0.001618187539680d0     0.682350329822173d0
O1       0.198268504441574d0     0.250236248865719d0     0.238667392858710d0
O1       0.801993766892314d0     0.249987153755059d0     0.238669098461250d0
Ti1      0.000123603383822d0     0.999897385958536d0     0.238512187198856d0
Ti1      0.500142521004230d0     0.750038178055688d0     0.238522014307695d0
O1       0.000095322930372d0     0.500084774873452d0     0.317452257936818d0
O1       0.500112315057126d0     0.500084209992886d0     0.290342007718641d0
O1       0.698270105622955d0     0.750236102495782d0     0.369213011426276d0
O1       0.301995368073695d0     0.749987007385122d0     0.369214717028816d0
Ti1      0.500001644927041d0     0.985370751416071d0     0.364779031055315d0
Ti1      0.000183276761494d0     0.748948988039575d0     0.368476322807288d0
O1       0.498409879313211d0     0.508098233442397d0     0.446839174651576d0
O1       0.001460782485842d0     0.499964783615161d0     0.422656139091726d0
O1       0.193442906707227d0     0.749663390367386d0     0.502109786465680d0
O1       0.802049258140442d0     0.750087247808170d0     0.501621392566863d0
Ti1      0.995933953822528d0     0.977787622915787d0     0.501109183388862d0
Ti1      0.495782581121952d0     0.739688472223256d0     0.493334363989927d0
O1       0.995690442166986d0     0.494013434866416d0     0.583568867176244d0
O1       0.498134337194569d0     0.500226650933946d0     0.550870159111873d0
O1       0.689041585961980d0     0.741067681362214d0     0.638064653194894d0
O1       0.305000728182699d0     0.744552974613162d0     0.638608260000697d0
Ti1      0.501010499322929d0     0.001335143076856d0     0.649530393253326d0
Ti1      0.996432028442421d0     0.772315051532643d0     0.637834835196622d0
O1       0.500093721748991d0     0.500084921243389d0     0.186906639369252d0
O1       0.198268504441574d0     0.750236248865719d0     0.238667392858710d0
O1       0.801993766892315d0     0.749987153755059d0     0.238669098461250d0
C1       0.008261158431674d0     0.497763125662168d0     0.701671389318273d0
H1       0.153388543864984d0     0.495654195713261d0     0.722460260183075d0
N1       0.856476552196959d0     0.483370657007419d0     0.734520099805432d0
N1       0.713456092579241d0     0.469461040771850d0     0.759926794852676d0
O1       0.500107351925047d0     0.992285718072519d0     0.721072073769075d0
H1       0.583779696642048d0     0.079902020856910d0     0.745032845462581d0
K_POINTS automatic
4 4 1  0 0 0 
