&CONTROL
  calculation='relax',
  prefix='calc',
  pseudo_dir='/storage/coda1/p-amedford6/0/shared/rich_project_chbe-medford/medford-share/data/pseudos_module/espresso/nninc/pbe/van',
  outdir='.',
  tefield=.true.,
  dipfield=.true.,
  tprnfor=.true.,
  disk_io='none',
/
&SYSTEM
  ibrav=0,
  celldm(1)=1.8897261245650618d0,
  nat=54,
  ntyp=5,
  ecutwfc=29.39945797996531d00,
  ecutrho=293.9945797996531d00,
  nbnd=208,
  occupations='smearing',
  smearing='fd',
  degauss=0.007349864494991328d00,
  input_dft='BEEF-vdW',
  edir=3,
  emaxpos=0.0007397133554061242d00,
  eopreg=0.025d00,
  eamp=0.0d00,
  nosym=.false.,
  noinv=.false.,
  nosym_evc=.false.,
  no_t_rev=.false.,
/
&ELECTRONS
  diagonalization='david',
  conv_thr=7.349864494991327e-08,
  mixing_beta=0.05d00,
  electron_maxstep=1000,
  startingwfc='atomic',
/
&IONS
  ion_dynamics='ipi',
/
&CELL
  cell_dynamics='ipi',
/
CELL_PARAMETERS alat
    6.579727202290808d0     0.000000000000000d0     0.000000000000000d0
   -0.000775132442404d0     5.961596420607155d0     0.000000000000000d0
    0.000000000000000d0    -0.000000000000000d0    25.155947251439940d0
ATOMIC_SPECIES
Ti1 47.867d00 Ti.UPF
O1 15.999d00 O.UPF
N1 14.007d00 N.UPF
C1 12.011d00 C.UPF
H1 1.008d00 H.UPF
ATOMIC_POSITIONS {crystal}
Ti1      0.000123603383822d0     0.499897385958536d0     0.238512187198856d0
Ti1      0.500142521004230d0     0.250038178055688d0     0.238522014307695d0
O1       0.000095322930372d0     0.000084774873452d0     0.317452257936818d0
O1       0.500112315057126d0     0.000084209992886d0     0.290342007718641d0
O1       0.698270105622955d0     0.250236102495782d0     0.369213011426276d0
O1       0.301995368073695d0     0.249987007385122d0     0.369214717028816d0
Ti1      0.500198167309398d0     0.485761668506182d0     0.364758343030283d0
Ti1      0.000261424674789d0     0.248709163236136d0     0.368424970923767d0
O1       0.503434342059511d0     0.995798923944158d0     0.452144830187921d0
O1       0.001882992193933d0     0.999479849154423d0     0.422099495650131d0
O1       0.199929018139999d0     0.247815234087213d0     0.503196470170716d0
O1       0.808352426420439d0     0.247952300694875d0     0.503277765834751d0
Ti1      0.004804300872914d0     0.495729495233542d0     0.497584280245341d0
Ti1      0.505325003174122d0     0.245373949371537d0     0.497845391727711d0
O1       0.002685893278972d0     0.002529222665953d0     0.584696082598671d0
O1       0.505665500760589d0     0.997538890871636d0     0.556245211868621d0
O1       0.696556795749216d0     0.247418572529174d0     0.644823300624679d0
O1       0.316173912826148d0     0.245506313533399d0     0.643264307269123d0
Ti1      0.505623758438147d0     0.494193480101048d0     0.626276595512428d0
Ti1      0.001006193720818d0     0.226084803191016d0     0.638344569565906d0
O1       0.500093721748991d0     0.000084921243389d0     0.186906639369252d0
O1       0.006090662654519d0     0.983758678355262d0     0.685523560813029d0
O1       0.198268504441574d0     0.250236248865719d0     0.238667392858710d0
O1       0.801993766892314d0     0.249987153755059d0     0.238669098461250d0
Ti1      0.000123603383822d0     0.999897385958536d0     0.238512187198856d0
Ti1      0.500142521004230d0     0.750038178055688d0     0.238522014307695d0
O1       0.000095322930372d0     0.500084774873452d0     0.317452257936818d0
O1       0.500112315057126d0     0.500084209992886d0     0.290342007718641d0
O1       0.698270105622955d0     0.750236102495782d0     0.369213011426276d0
O1       0.301995368073695d0     0.749987007385122d0     0.369214717028816d0
Ti1      0.500001644927041d0     0.985370751416071d0     0.364779031055315d0
Ti1      0.000183276761494d0     0.748948988039575d0     0.368476322807288d0
O1       0.503519978841846d0     0.497166551196078d0     0.451997777828242d0
O1       0.001460782485842d0     0.499964783615161d0     0.422656139091726d0
O1       0.199799964348196d0     0.746646326946906d0     0.503974216575997d0
O1       0.808425871351637d0     0.746505681885444d0     0.503992161885046d0
Ti1      0.004783041586659d0     0.996957426086817d0     0.496950138912778d0
Ti1      0.505416525934382d0     0.745208554254668d0     0.498032978588555d0
O1       0.005113078386703d0     0.491629255710017d0     0.595063763315197d0
O1       0.505687573920812d0     0.495017954822767d0     0.555185677513526d0
O1       0.696422996720878d0     0.742366192909148d0     0.643527197023521d0
O1       0.315295740309098d0     0.743900391868880d0     0.641881547881869d0
Ti1      0.503770867634247d0     0.995088210724464d0     0.627724299719077d0
Ti1      0.004010363730085d0     0.768105405034687d0     0.631712943629930d0
O1       0.500093721748991d0     0.500084921243389d0     0.186906639369252d0
O1       0.198268504441574d0     0.750236248865719d0     0.238667392858710d0
O1       0.801993766892315d0     0.749987153755059d0     0.238669098461250d0
N1       0.039739279146837d0     0.461057692843857d0     0.717065318906653d0
C1       0.162175813062398d0     0.525582591304561d0     0.746073563087165d0
H1       0.296377019128459d0     0.581631650402897d0     0.767893377058379d0
N1       0.597558549449635d0     0.626871650716956d0     0.778812171803076d0
H1       0.648093334398182d0     0.682250722156967d0     0.814572787341560d0
H1       0.653976905984898d0     0.733993748338603d0     0.750942025054560d0
H1       0.669154493386237d0     0.478362350788934d0     0.771894288357048d0
K_POINTS automatic
4 4 1  0 0 0 
