&CONTROL
  calculation='relax',
  prefix='calc',
  pseudo_dir='/storage/coda1/p-amedford6/0/shared/rich_project_chbe-medford/medford-share/data/pseudos_module/espresso/nninc/pbe/van',
  outdir='.',
  tefield=.true.,
  dipfield=.true.,
  tprnfor=.true.,
  disk_io='none',
/
&SYSTEM
  ibrav=0,
  celldm(1)=1.8897261245650618d0,
  nat=56,
  ntyp=5,
  ecutwfc=29.39945797996531d00,
  ecutrho=293.9945797996531d00,
  nbnd=209,
  occupations='smearing',
  smearing='fd',
  degauss=0.007349864494991328d00,
  input_dft='BEEF-vdW',
  edir=3,
  emaxpos=0.9911513223650281d00,
  eopreg=0.025d00,
  eamp=0.0d00,
  nosym=.false.,
  noinv=.false.,
  nosym_evc=.false.,
  no_t_rev=.false.,
/
&ELECTRONS
  diagonalization='david',
  conv_thr=7.349864494991327e-08,
  mixing_beta=0.05d00,
  electron_maxstep=1000,
  startingpot='file',
  startingwfc='atomic',
/
&IONS
  ion_dynamics='ipi',
/
&CELL
  cell_dynamics='ipi',
/
CELL_PARAMETERS alat
    6.579727202290808d0     0.000000000000000d0     0.000000000000000d0
   -0.000775132442404d0     5.961596420607155d0     0.000000000000000d0
    0.000000000000000d0    -0.000000000000000d0    25.155947251439940d0
ATOMIC_SPECIES
Ti1 47.867d00 Ti.UPF
O1 15.999d00 O.UPF
N1 14.007d00 N.UPF
C1 12.011d00 C.UPF
H1 1.008d00 H.UPF
ATOMIC_POSITIONS {crystal}
Ti1      0.000123603383822d0     0.499897385958536d0     0.238512187198856d0
Ti1      0.500142521004230d0     0.250038178055688d0     0.238522014307695d0
O1       0.000095322930372d0     0.000084774873452d0     0.317452257936818d0
O1       0.500112315057126d0     0.000084209992886d0     0.290342007718641d0
O1       0.698270105622955d0     0.250236102495782d0     0.369213011426276d0
O1       0.301995368073695d0     0.249987007385122d0     0.369214717028816d0
Ti1      0.500198167309398d0     0.485761668506182d0     0.364758343030283d0
Ti1      0.000261424674789d0     0.248709163236136d0     0.368424970923767d0
O1       0.500891043376367d0     0.997750315094737d0     0.451846790395766d0
O1       0.001882992193933d0     0.999479849154423d0     0.422099495650131d0
O1       0.193541242705956d0     0.250213970705325d0     0.504361086629729d0
O1       0.807349299154768d0     0.249806431930044d0     0.504260675852429d0
Ti1      0.998402426912779d0     0.494251324422844d0     0.497593335483017d0
Ti1      0.501505788517171d0     0.217649335794175d0     0.505812114748982d0
O1       0.002733389710367d0     0.986195618910230d0     0.582841789265149d0
O1       0.500290529006996d0     0.011790895636489d0     0.557123111819644d0
O1       0.693723962615037d0     0.267056428021485d0     0.641385039057413d0
O1       0.306000785088107d0     0.265731048269518d0     0.638320151343424d0
Ti1      0.496475006703589d0     0.510049762760501d0     0.623899327704599d0
Ti1      0.009427850291354d0     0.221519615833247d0     0.628074649216023d0
O1       0.500093721748991d0     0.000084921243389d0     0.186906639369252d0
O1       0.003558469491694d0     0.026336872317088d0     0.683107163783008d0
O1       0.198268504441574d0     0.250236248865719d0     0.238667392858710d0
O1       0.801993766892314d0     0.249987153755059d0     0.238669098461250d0
Ti1      0.000123603383822d0     0.999897385958536d0     0.238512187198856d0
Ti1      0.500142521004230d0     0.750038178055688d0     0.238522014307695d0
O1       0.000095322930372d0     0.500084774873452d0     0.317452257936818d0
O1       0.500112315057126d0     0.500084209992886d0     0.290342007718641d0
O1       0.698270105622955d0     0.750236102495782d0     0.369213011426276d0
O1       0.301995368073695d0     0.749987007385122d0     0.369214717028816d0
Ti1      0.500001644927041d0     0.985370751416071d0     0.364779031055315d0
Ti1      0.000183276761494d0     0.748948988039575d0     0.368476322807288d0
O1       0.500813824731736d0     0.502378824879366d0     0.449900903132323d0
O1       0.001460782485842d0     0.499964783615161d0     0.422656139091726d0
O1       0.195060481984980d0     0.747645329363038d0     0.502595237286912d0
O1       0.806795510293030d0     0.748209219281732d0     0.502543446207862d0
Ti1      0.004173899003611d0     0.992262699874177d0     0.497076292427477d0
Ti1      0.501755240599659d0     0.734042609370611d0     0.494330634166975d0
O1       0.995652908027151d0     0.510955079177516d0     0.592325281445257d0
O1       0.500665044043170d0     0.505426590253571d0     0.553480183727944d0
O1       0.689342001533647d0     0.752553323272767d0     0.642069686461888d0
O1       0.302281436439439d0     0.742839021932338d0     0.642751391817723d0
Ti1      0.515473433113005d0     0.013165157417995d0     0.647201143309742d0
Ti1      0.009062873064716d0     0.757512630281450d0     0.636866032017398d0
O1       0.500093721748991d0     0.500084921243389d0     0.186906639369252d0
O1       0.198268504441574d0     0.750236248865719d0     0.238667392858710d0
O1       0.801993766892315d0     0.749987153755059d0     0.238669098461250d0
N1       0.953091691062405d0     0.567586383598723d0     0.718535686682478d0
C1       0.116210067505441d0     0.523749111220354d0     0.757764711781878d0
H1       0.200062963003567d0     0.676176026030193d0     0.764866591011724d0
H1       0.054724212544889d0     0.462686859822277d0     0.795396005360804d0
H1       0.220690607908075d0     0.399394001778736d0     0.742046675382516d0
H1       0.862506502961713d0     0.693595689925635d0     0.732257116778463d0
H1       0.860071557129837d0     0.431034564629528d0     0.716137321826144d0
O1       0.485924254991654d0     0.015271934265444d0     0.720797758169895d0
H1       0.346022201029248d0     0.018123045509006d0     0.732936590623563d0
K_POINTS automatic
4 4 1  0 0 0 
