&CONTROL
  calculation='relax',
  prefix='calc',
  pseudo_dir='/storage/coda1/p-amedford6/0/shared/rich_project_chbe-medford/medford-share/data/pseudos_module/espresso/nninc/pbe/van',
  outdir='.',
  tefield=.true.,
  dipfield=.true.,
  tprnfor=.true.,
  disk_io='none',
/
&SYSTEM
  ibrav=0,
  celldm(1)=1.8897261245650618d0,
  nat=54,
  ntyp=5,
  ecutwfc=29.39945797996531d00,
  ecutrho=293.9945797996531d00,
  nbnd=210,
  occupations='smearing',
  smearing='fd',
  degauss=0.007349864494991328d00,
  input_dft='BEEF-vdW',
  edir=3,
  emaxpos=0.0020000360718175347d00,
  eopreg=0.025d00,
  eamp=0.0d00,
  nosym=.false.,
  noinv=.false.,
  nosym_evc=.false.,
  no_t_rev=.false.,
/
&ELECTRONS
  diagonalization='david',
  conv_thr=7.349864494991327e-08,
  mixing_beta=0.05d00,
  electron_maxstep=1000,
  startingpot='file',
  startingwfc='atomic',
/
&IONS
  ion_dynamics='ipi',
/
&CELL
  cell_dynamics='ipi',
/
CELL_PARAMETERS alat
    6.579727202290808d0     0.000000000000000d0     0.000000000000000d0
   -0.000775132442404d0     5.961596420607155d0     0.000000000000000d0
    0.000000000000000d0    -0.000000000000000d0    25.155947251439940d0
ATOMIC_SPECIES
Ti1 47.867d00 Ti.UPF
O1 15.999d00 O.UPF
N1 14.007d00 N.UPF
C1 12.011d00 C.UPF
H1 1.008d00 H.UPF
ATOMIC_POSITIONS {crystal}
Ti1      0.000123603383822d0     0.499897385958536d0     0.238512187198856d0
Ti1      0.500142521004230d0     0.250038178055688d0     0.238522014307695d0
O1       0.000095322930372d0     0.000084774873452d0     0.317452257936818d0
O1       0.500112315057126d0     0.000084209992886d0     0.290342007718641d0
O1       0.698270105622955d0     0.250236102495782d0     0.369213011426276d0
O1       0.301995368073695d0     0.249987007385122d0     0.369214717028816d0
Ti1      0.500198167309398d0     0.485761668506182d0     0.364758343030283d0
Ti1      0.000261424674789d0     0.248709163236136d0     0.368424970923767d0
O1       0.500683775835860d0     0.997855262290898d0     0.450685418371825d0
O1       0.001882992193933d0     0.999479849154423d0     0.422099495650131d0
O1       0.196221997141246d0     0.252794069315401d0     0.502845208253912d0
O1       0.807612982559918d0     0.250469297584355d0     0.502359801500819d0
Ti1      0.002000557640448d0     0.484235036008346d0     0.500938961315923d0
Ti1      0.501377026245004d0     0.218748204204054d0     0.504957116154494d0
O1       0.002663611928904d0     0.004041553713950d0     0.582519934293909d0
O1       0.502524976806878d0     0.012439841420571d0     0.555621616964227d0
O1       0.696530317731536d0     0.259966308275110d0     0.641794300527034d0
O1       0.309564652778461d0     0.266686815427981d0     0.639479728337718d0
Ti1      0.503154085457565d0     0.503740079705427d0     0.623249009790458d0
Ti1      0.008756441076091d0     0.226262121473147d0     0.636231725248249d0
O1       0.500093721748991d0     0.000084921243389d0     0.186906639369252d0
O1       0.010970529254771d0     0.001401128653814d0     0.682813553770959d0
O1       0.198268504441574d0     0.250236248865719d0     0.238667392858710d0
O1       0.801993766892314d0     0.249987153755059d0     0.238669098461250d0
Ti1      0.000123603383822d0     0.999897385958536d0     0.238512187198856d0
Ti1      0.500142521004230d0     0.750038178055688d0     0.238522014307695d0
O1       0.000095322930372d0     0.500084774873452d0     0.317452257936818d0
O1       0.500112315057126d0     0.500084209992886d0     0.290342007718641d0
O1       0.698270105622955d0     0.750236102495782d0     0.369213011426276d0
O1       0.301995368073695d0     0.749987007385122d0     0.369214717028816d0
Ti1      0.500001644927041d0     0.985370751416071d0     0.364779031055315d0
Ti1      0.000183276761494d0     0.748948988039575d0     0.368476322807288d0
O1       0.500605872361767d0     0.505828347435291d0     0.448905899685269d0
O1       0.001460782485842d0     0.499964783615161d0     0.422656139091726d0
O1       0.196625519470266d0     0.751356771954658d0     0.502778105186155d0
O1       0.806454362217450d0     0.752753944549803d0     0.502322115703635d0
Ti1      0.999344594250121d0     0.985326016457241d0     0.497508683309691d0
Ti1      0.499556653334598d0     0.736021483649860d0     0.494011979237115d0
O1       0.998349122908385d0     0.504882085420351d0     0.585875869028248d0
O1       0.505757446346518d0     0.501809227338276d0     0.552552715834463d0
O1       0.695475320504262d0     0.748610643820230d0     0.641080976174588d0
O1       0.309765339421309d0     0.744078566026119d0     0.636972720095229d0
Ti1      0.514571871269586d0     0.002624477555212d0     0.647680666905041d0
Ti1      0.012858228982150d0     0.759156673712059d0     0.628101566197880d0
O1       0.500093721748991d0     0.500084921243389d0     0.186906639369252d0
O1       0.198268504441574d0     0.750236248865719d0     0.238667392858710d0
O1       0.801993766892315d0     0.749987153755059d0     0.238669098461250d0
N1       0.986068379509228d0     0.552733414670284d0     0.743050950862913d0
N1       0.002187496070701d0     0.510272933526727d0     0.697923049576472d0
C1       0.958461706277600d0     0.607212425706923d0     0.791209218969384d0
H1       0.805019260964454d0     0.641293794450117d0     0.804471386492227d0
H1       0.088838862467098d0     0.623175084495129d0     0.817093432774383d0
O1       0.472154150396094d0     0.997447848995058d0     0.720428613605907d0
H1       0.329950440318567d0     0.014358118153048d0     0.730039494340162d0
K_POINTS automatic
4 4 1  0 0 0 
