&CONTROL
  calculation='relax',
  prefix='calc',
  pseudo_dir='/storage/coda1/p-amedford6/0/shared/rich_project_chbe-medford/medford-share/data/pseudos_module/espresso/nninc/pbe/van',
  outdir='.',
  tefield=.true.,
  dipfield=.true.,
  tprnfor=.true.,
  disk_io='none',
/
&SYSTEM
  ibrav=0,
  celldm(1)=1.8897261245650618d0,
  nat=57,
  ntyp=5,
  ecutwfc=29.39945797996531d00,
  ecutrho=293.9945797996531d00,
  nbnd=214,
  occupations='smearing',
  smearing='fd',
  degauss=0.007349864494991328d00,
  input_dft='BEEF-vdW',
  edir=3,
  emaxpos=0.9967652466275767d00,
  eopreg=0.025d00,
  eamp=0.0d00,
  nosym=.false.,
  noinv=.false.,
  nosym_evc=.false.,
  no_t_rev=.false.,
/
&ELECTRONS
  diagonalization='david',
  conv_thr=7.349864494991327e-08,
  mixing_beta=0.05d00,
  electron_maxstep=1000,
  startingpot='file',
  startingwfc='atomic',
/
&IONS
  ion_dynamics='ipi',
/
&CELL
  cell_dynamics='ipi',
/
CELL_PARAMETERS alat
    6.579727202290808d0     0.000000000000000d0     0.000000000000000d0
   -0.000775132442404d0     5.961596420607155d0     0.000000000000000d0
    0.000000000000000d0    -0.000000000000000d0    25.155947251439940d0
ATOMIC_SPECIES
Ti1 47.867d00 Ti.UPF
O1 15.999d00 O.UPF
N1 14.007d00 N.UPF
C1 12.011d00 C.UPF
H1 1.008d00 H.UPF
ATOMIC_POSITIONS {crystal}
Ti1      0.000123603383822d0     0.499897385958536d0     0.238512187198856d0
Ti1      0.500142521004230d0     0.250038178055688d0     0.238522014307695d0
O1       0.000095322930372d0     0.000084774873452d0     0.317452257936818d0
O1       0.500112315057126d0     0.000084209992886d0     0.290342007718641d0
O1       0.698270105622955d0     0.250236102495782d0     0.369213011426276d0
O1       0.301995368073695d0     0.249987007385122d0     0.369214717028816d0
Ti1      0.500198167309398d0     0.485761668506182d0     0.364758343030283d0
Ti1      0.000261424674789d0     0.248709163236136d0     0.368424970923767d0
O1       0.498309765855435d0     0.999861377138147d0     0.450879802734982d0
O1       0.001882992193933d0     0.999479849154423d0     0.422099495650131d0
O1       0.194369915504944d0     0.248570441191320d0     0.502671566105725d0
O1       0.801082958821877d0     0.249472037063586d0     0.501117436178898d0
Ti1      0.007964248524044d0     0.494031208279504d0     0.500923674025509d0
Ti1      0.511746183557978d0     0.246692093767715d0     0.497248014476559d0
O1       0.990534569733193d0     0.998143298658778d0     0.582028387555725d0
O1       0.501573693863494d0     0.000693574733508d0     0.554732734399722d0
O1       0.687534084709741d0     0.255021299170251d0     0.638550448488843d0
O1       0.303878411058567d0     0.261724170622260d0     0.635029874175228d0
Ti1      0.494631606015027d0     0.504568083184380d0     0.623955418958853d0
Ti1      0.996895546440507d0     0.257044935303482d0     0.627379244839627d0
O1       0.500093721748991d0     0.000084921243389d0     0.186906639369252d0
O1       0.014604550281833d0     0.001664343492758d0     0.684443991912096d0
O1       0.198268504441574d0     0.250236248865719d0     0.238667392858710d0
O1       0.801993766892314d0     0.249987153755059d0     0.238669098461250d0
Ti1      0.000123603383822d0     0.999897385958536d0     0.238512187198856d0
Ti1      0.500142521004230d0     0.750038178055688d0     0.238522014307695d0
O1       0.000095322930372d0     0.500084774873452d0     0.317452257936818d0
O1       0.500112315057126d0     0.500084209992886d0     0.290342007718641d0
O1       0.698270105622955d0     0.750236102495782d0     0.369213011426276d0
O1       0.301995368073695d0     0.749987007385122d0     0.369214717028816d0
Ti1      0.500001644927041d0     0.985370751416071d0     0.364779031055315d0
Ti1      0.000183276761494d0     0.748948988039575d0     0.368476322807288d0
O1       0.498669322237737d0     0.499336543665103d0     0.450950185906321d0
O1       0.001460782485842d0     0.499964783615161d0     0.422656139091726d0
O1       0.194468718889206d0     0.749490440530324d0     0.502446344946517d0
O1       0.801610580867611d0     0.751067446201485d0     0.500908626217600d0
Ti1      0.007111165007536d0     0.992628477436345d0     0.498627895133077d0
Ti1      0.511639496049147d0     0.748894954094019d0     0.496808470125359d0
O1       0.992460097925436d0     0.499219936526401d0     0.582405115435076d0
O1       0.502904846956929d0     0.502575093709648d0     0.552624456005095d0
O1       0.686112563684164d0     0.753100911066639d0     0.641092078706659d0
O1       0.303463158433484d0     0.743840889319213d0     0.636273746499738d0
Ti1      0.503304258065947d0     0.003766585730933d0     0.628043153005582d0
Ti1      0.999766421468160d0     0.781296591848436d0     0.638568936079702d0
O1       0.500093721748991d0     0.500084921243389d0     0.186906639369252d0
O1       0.198268504441574d0     0.750236248865719d0     0.238667392858710d0
O1       0.801993766892315d0     0.749987153755059d0     0.238669098461250d0
N1       0.988934246724842d0     0.438469810062829d0     0.740592504932899d0
N1       0.993473371253717d0     0.481891438008560d0     0.693157872530425d0
C1       0.977943598517096d0     0.624590812617747d0     0.779559819311460d0
H1       0.958592953551636d0     0.788759844532413d0     0.760806612929494d0
H1       0.853673189369955d0     0.583831248750658d0     0.806623853885901d0
H1       0.118969677679217d0     0.620045293309760d0     0.802376079440099d0
O1       0.460825953849321d0     0.852711501226677d0     0.754934951333356d0
H1       0.264676370680710d0     0.034299422824950d0     0.716501221039363d0
O1       0.416024478661072d0     0.043146284211746d0     0.718632292108563d0
H1       0.598053867282818d0     0.896845635271996d0     0.765177930672454d0
K_POINTS automatic
4 4 1  0 0 0 
