&CONTROL
  calculation='relax',
  prefix='calc',
  pseudo_dir='/storage/coda1/p-amedford6/0/shared/rich_project_chbe-medford/medford-share/data/pseudos_module/espresso/nninc/pbe/van',
  outdir='.',
  tefield=.true.,
  dipfield=.true.,
  tprnfor=.true.,
  disk_io='none',
/
&SYSTEM
  ibrav=0,
  celldm(1)=1.8897261245650618d0,
  nat=51,
  ntyp=4,
  ecutwfc=29.39945797996531d00,
  ecutrho=293.9945797996531d00,
  nbnd=205,
  occupations='smearing',
  smearing='fd',
  degauss=0.007349864494991328d00,
  input_dft='BEEF-vdW',
  edir=3,
  emaxpos=0.9798366553109297d00,
  eopreg=0.025d00,
  eamp=0.0d00,
  nosym=.false.,
  noinv=.false.,
  nosym_evc=.false.,
  no_t_rev=.false.,
/
&ELECTRONS
  diagonalization='david',
  conv_thr=7.349864494991327e-08,
  mixing_beta=0.05d00,
  electron_maxstep=1000,
  startingpot='file',
  startingwfc='atomic',
/
&IONS
  ion_dynamics='ipi',
/
&CELL
  cell_dynamics='ipi',
/
CELL_PARAMETERS alat
    6.579727202290808d0     0.000000000000000d0     0.000000000000000d0
   -0.000775132442404d0     5.961596420607155d0     0.000000000000000d0
    0.000000000000000d0    -0.000000000000000d0    25.155947251439940d0
ATOMIC_SPECIES
Ti1 47.867d00 Ti.UPF
O1 15.999d00 O.UPF
H1 1.008d00 H.UPF
N1 14.007d00 N.UPF
ATOMIC_POSITIONS {crystal}
Ti1      0.000123603383822d0     0.499897385958536d0     0.238512187198856d0
Ti1      0.500142521004230d0     0.250038178055688d0     0.238522014307695d0
O1       0.000095322930372d0     0.000084774873452d0     0.317452257936818d0
O1       0.500112315057126d0     0.000084209992886d0     0.290342007718641d0
O1       0.698270105622955d0     0.250236102495782d0     0.369213011426276d0
O1       0.301995368073695d0     0.249987007385122d0     0.369214717028816d0
Ti1      0.500213098169677d0     0.487155223060841d0     0.364385940305882d0
Ti1      0.000457266281764d0     0.242445214765732d0     0.368011965952900d0
O1       0.497101752351417d0     0.000405403319226d0     0.451373607644701d0
O1       0.999727053636836d0     0.999964551848440d0     0.421367346348673d0
O1       0.193818767793866d0     0.249731473355253d0     0.503354315966927d0
O1       0.801521065379294d0     0.250624766432744d0     0.502332408304733d0
Ti1      0.995302362882736d0     0.504041566426914d0     0.509187844566440d0
Ti1      0.496031334029379d0     0.249806949383679d0     0.497053549272433d0
O1       0.989711130689080d0     0.995418714805411d0     0.582807895227878d0
O1       0.501152444394996d0     0.997850960206256d0     0.554788896104510d0
O1       0.683672964479404d0     0.253299808684039d0     0.640865612638809d0
O1       0.302887488250362d0     0.248411207585730d0     0.637102552312266d0
Ti1      0.491716544748441d0     0.498437903078550d0     0.625300164415641d0
Ti1      0.998387243945150d0     0.218943980443011d0     0.632151512629581d0
O1       0.500093721748991d0     0.000084921243389d0     0.186906639369252d0
O1       0.995446226805416d0     0.011746757872378d0     0.683950355688680d0
O1       0.198268504441574d0     0.250236248865719d0     0.238667392858710d0
O1       0.801993766892314d0     0.249987153755059d0     0.238669098461250d0
Ti1      0.000123603383822d0     0.999897385958536d0     0.238512187198856d0
Ti1      0.500142521004230d0     0.750038178055688d0     0.238522014307695d0
O1       0.000095322930372d0     0.500084774873452d0     0.317452257936818d0
O1       0.500112315057126d0     0.500084209992886d0     0.290342007718641d0
O1       0.698270105622955d0     0.750236102495782d0     0.369213011426276d0
O1       0.301995368073695d0     0.749987007385122d0     0.369214717028816d0
Ti1      0.500126898602403d0     0.987255193593828d0     0.364704218073107d0
Ti1      0.000392310949029d0     0.732321517255021d0     0.372103283192469d0
O1       0.496890502218492d0     0.498780272217980d0     0.451308084375127d0
O1       0.000095450376581d0     0.499030362713303d0     0.420044787384960d0
O1       0.193844831475467d0     0.750251963202132d0     0.502559675558209d0
O1       0.801340524070607d0     0.749207743196905d0     0.501525865752105d0
Ti1      0.996737845323519d0     0.003380119034561d0     0.496844528922147d0
Ti1      0.495831721143947d0     0.749012564008244d0     0.496726143635367d0
O1       0.993232317781325d0     0.504561598869542d0     0.585071258875176d0
O1       0.498520562229778d0     0.501129070339856d0     0.553895678170767d0
O1       0.684429808837812d0     0.744329501221168d0     0.642218409308903d0
O1       0.301777264823113d0     0.748421416222130d0     0.639335865770265d0
Ti1      0.498976778069755d0     0.998982300018394d0     0.626075321144786d0
Ti1      0.996367836374209d0     0.755621115582544d0     0.638407439019855d0
O1       0.500093721748991d0     0.500084921243389d0     0.186906639369252d0
O1       0.198268504441574d0     0.750236248865719d0     0.238667392858710d0
O1       0.801993766892315d0     0.749987153755059d0     0.238669098461250d0
H1       0.086058199476302d0     0.432896284279096d0     0.772766671252607d0
N1       0.140342921030556d0     0.495472193953315d0     0.737576875273752d0
N1       0.991619629353117d0     0.533696185325058d0     0.705224337090209d0
H1       0.849740939396944d0     0.504370459360856d0     0.720731150119310d0
K_POINTS automatic
4 4 1  0 0 0 
