&CONTROL
  calculation='relax',
  prefix='calc',
  pseudo_dir='/storage/coda1/p-amedford6/0/shared/rich_project_chbe-medford/medford-share/data/pseudos_module/espresso/nninc/pbe/van',
  outdir='.',
  tefield=.true.,
  dipfield=.true.,
  tprnfor=.true.,
  disk_io='none',
/
&SYSTEM
  ibrav=0,
  celldm(1)=1.8897261245650618d0,
  nat=51,
  ntyp=4,
  ecutwfc=29.39945797996531d00,
  ecutrho=293.9945797996531d00,
  nbnd=205,
  occupations='smearing',
  smearing='fd',
  degauss=0.007349864494991328d00,
  input_dft='BEEF-vdW',
  edir=3,
  emaxpos=0.9763625689005739d00,
  eopreg=0.025d00,
  eamp=0.0d00,
  nosym=.false.,
  noinv=.false.,
  nosym_evc=.false.,
  no_t_rev=.false.,
/
&ELECTRONS
  diagonalization='david',
  conv_thr=7.349864494991327e-08,
  mixing_beta=0.05d00,
  electron_maxstep=1000,
  startingpot='file',
  startingwfc='atomic',
/
&IONS
  ion_dynamics='ipi',
/
&CELL
  cell_dynamics='ipi',
/
CELL_PARAMETERS alat
    6.579727202290808d0     0.000000000000000d0     0.000000000000000d0
   -0.000775132442404d0     5.961596420607155d0     0.000000000000000d0
    0.000000000000000d0    -0.000000000000000d0    25.155947251439940d0
ATOMIC_SPECIES
O1 15.999d00 O.UPF
Ti1 47.867d00 Ti.UPF
C1 12.011d00 C.UPF
H1 1.008d00 H.UPF
ATOMIC_POSITIONS {crystal}
O1       0.500093721748991d0     0.000084921243389d0     0.186906639369252d0
O1       0.500093721748991d0     0.500084921243389d0     0.186906639369252d0
Ti1      0.000123603383822d0     0.499897385958537d0     0.238512187198856d0
Ti1      0.000123603383822d0     0.999897385958537d0     0.238512187198856d0
Ti1      0.500142521004230d0     0.250038178055688d0     0.238522014307695d0
Ti1      0.500142521004230d0     0.750038178055688d0     0.238522014307695d0
O1       0.198268504441574d0     0.250236248865719d0     0.238667392858710d0
O1       0.198268504441574d0     0.750236248865719d0     0.238667392858710d0
O1       0.801993766892314d0     0.249987153755059d0     0.238669098461250d0
O1       0.801993766892315d0     0.749987153755059d0     0.238669098461250d0
O1       0.500112315057126d0     0.000084209992886d0     0.290342007718641d0
O1       0.500112315057126d0     0.500084209992886d0     0.290342007718641d0
O1       0.000095322930372d0     0.000084774873452d0     0.317452257936818d0
O1       0.000095322930372d0     0.500084774873452d0     0.317452257936818d0
Ti1      0.502181366894207d0     0.008947074519091d0     0.363844726118530d0
Ti1      0.504255948163299d0     0.508535983771013d0     0.363973401098550d0
Ti1      0.004554824199179d0     0.760248475001551d0     0.367915557463530d0
Ti1      0.003982479283390d0     0.269612274040523d0     0.372186761138604d0
O1       0.698270105622955d0     0.250236102495782d0     0.369213011426276d0
O1       0.698270105622955d0     0.750236102495782d0     0.369213011426276d0
O1       0.301995368073695d0     0.249987007385122d0     0.369214717028816d0
O1       0.301995368073695d0     0.749987007385122d0     0.369214717028816d0
O1       0.000973425575726d0     0.001375131591645d0     0.421469129858482d0
O1       0.001181645085091d0     0.501455079071165d0     0.420841209395396d0
O1       0.501955589811334d0     0.502445088208563d0     0.450918427675495d0
O1       0.502040031205239d0     0.001666893357443d0     0.451045772374663d0
Ti1      0.004708050794902d0     0.002795617317692d0     0.496878779851768d0
Ti1      0.506355619040978d0     0.752949748793400d0     0.496494134787820d0
Ti1      0.506287489701412d0     0.253511430523488d0     0.496291874717755d0
Ti1      0.005037794956593d0     0.503091165749406d0     0.507616279342842d0
O1       0.197706300568353d0     0.751838086931141d0     0.502418140659576d0
O1       0.197716004040009d0     0.251645899115216d0     0.502203162276079d0
O1       0.805464945097414d0     0.751565621135314d0     0.502552587526290d0
O1       0.805536832896116d0     0.251801868549854d0     0.502325782132520d0
O1       0.501878310392875d0     0.501192302654926d0     0.553388438948903d0
O1       0.502155743880208d0     0.001870817014539d0     0.554364756587711d0
O1       0.003106440311066d0     0.002773319854415d0     0.583527297160052d0
O1       0.004069436582941d0     0.502181401365723d0     0.585137307274041d0
Ti1      0.503132267256314d0     0.501526747555897d0     0.624693571942211d0
Ti1      0.504431857312208d0     0.001922593026388d0     0.625571959057283d0
Ti1      0.004759610328784d0     0.767557416225782d0     0.633607129864166d0
Ti1      0.004687150066864d0     0.232489234759478d0     0.635940376513140d0
O1       0.692814128469983d0     0.749900657799060d0     0.639527414660561d0
O1       0.692798644657100d0     0.253582775454515d0     0.640003352039326d0
O1       0.312493883243324d0     0.253949735376494d0     0.640256963141625d0
O1       0.312621612336755d0     0.749471683419229d0     0.639861804979556d0
O1       0.002324949264855d0     0.000397181400426d0     0.683690248206474d0
O1       0.997750646222759d0     0.503558564425849d0     0.692673731606046d0
C1       0.970419962343635d0     0.515710370099810d0     0.742838905031584d0
H1       0.957579168328764d0     0.680233541335485d0     0.761148940163407d0
H1       0.959384776985533d0     0.362177060729665d0     0.765818498431895d0
K_POINTS automatic
4 4 1  0 0 0 
