&CONTROL
  calculation='relax',
  prefix='calc',
  pseudo_dir='/storage/coda1/p-amedford6/0/shared/rich_project_chbe-medford/medford-share/data/pseudos_module/espresso/nninc/pbe/van',
  outdir='.',
  tefield=.true.,
  dipfield=.true.,
  tprnfor=.true.,
  disk_io='none',
/
&SYSTEM
  ibrav=0,
  celldm(1)=1.8897261245650618d0,
  nat=57,
  ntyp=5,
  ecutwfc=29.39945797996531d00,
  ecutrho=293.9945797996531d00,
  nbnd=212,
  occupations='smearing',
  smearing='fd',
  degauss=0.007349864494991328d00,
  input_dft='BEEF-vdW',
  edir=3,
  emaxpos=0.9899111446579165d00,
  eopreg=0.025d00,
  eamp=0.0d00,
  nosym=.false.,
  noinv=.false.,
  nosym_evc=.false.,
  no_t_rev=.false.,
/
&ELECTRONS
  diagonalization='david',
  conv_thr=7.349864494991327e-08,
  mixing_beta=0.05d00,
  electron_maxstep=1000,
  startingpot='file',
  startingwfc='atomic',
/
&IONS
  ion_dynamics='ipi',
/
&CELL
  cell_dynamics='ipi',
/
CELL_PARAMETERS alat
    6.579727202290808d0     0.000000000000000d0     0.000000000000000d0
   -0.000775132442404d0     5.961596420607155d0     0.000000000000000d0
    0.000000000000000d0    -0.000000000000000d0    25.155947251439940d0
ATOMIC_SPECIES
Ti1 47.867d00 Ti.UPF
O1 15.999d00 O.UPF
N1 14.007d00 N.UPF
C1 12.011d00 C.UPF
H1 1.008d00 H.UPF
ATOMIC_POSITIONS {crystal}
Ti1      0.000123603383822d0     0.499897385958536d0     0.238512187198856d0
Ti1      0.500142521004230d0     0.250038178055688d0     0.238522014307695d0
O1       0.000095322930372d0     0.000084774873452d0     0.317452257936818d0
O1       0.500112315057126d0     0.000084209992886d0     0.290342007718641d0
O1       0.698270105622955d0     0.250236102495782d0     0.369213011426276d0
O1       0.301995368073695d0     0.249987007385122d0     0.369214717028816d0
Ti1      0.500198167309398d0     0.485761668506182d0     0.364758343030283d0
Ti1      0.000261424674789d0     0.248709163236136d0     0.368424970923767d0
O1       0.502068829361911d0     0.991216107308332d0     0.452109516257319d0
O1       0.001882992193933d0     0.999479849154423d0     0.422099495650131d0
O1       0.196904610837830d0     0.247446537075817d0     0.502479600614270d0
O1       0.808097730921200d0     0.248383512786417d0     0.502331353603042d0
Ti1      0.002678272455958d0     0.503157596184035d0     0.498139970276792d0
Ti1      0.505472995646765d0     0.213964678793107d0     0.505399683572907d0
O1       0.999030915564050d0     0.018163688348672d0     0.582768247336884d0
O1       0.505160523272442d0     0.014062667034141d0     0.558410295383804d0
O1       0.692690252087909d0     0.258202728591801d0     0.645245104137671d0
O1       0.308589283196268d0     0.251000300577944d0     0.646646573470575d0
Ti1      0.491964813609673d0     0.493976740747529d0     0.623508701313430d0
Ti1      0.992481083408470d0     0.234625069943663d0     0.640665460366352d0
O1       0.500093721748991d0     0.000084921243389d0     0.186906639369252d0
O1       0.000448961084975d0     0.968868938508769d0     0.683182776016348d0
O1       0.198268504441574d0     0.250236248865719d0     0.238667392858710d0
O1       0.801993766892314d0     0.249987153755059d0     0.238669098461250d0
Ti1      0.000123603383822d0     0.999897385958536d0     0.238512187198856d0
Ti1      0.500142521004230d0     0.750038178055688d0     0.238522014307695d0
O1       0.000095322930372d0     0.500084774873452d0     0.317452257936818d0
O1       0.500112315057126d0     0.500084209992886d0     0.290342007718641d0
O1       0.698270105622955d0     0.750236102495782d0     0.369213011426276d0
O1       0.301995368073695d0     0.749987007385122d0     0.369214717028816d0
Ti1      0.500001644927041d0     0.985370751416071d0     0.364779031055315d0
Ti1      0.000183276761494d0     0.748948988039575d0     0.368476322807288d0
O1       0.501795327012943d0     0.500434814471331d0     0.450041444933213d0
O1       0.001460782485842d0     0.499964783615161d0     0.422656139091726d0
O1       0.196075635469478d0     0.746470195199516d0     0.504952003265278d0
O1       0.807771197757857d0     0.744475858949714d0     0.504564332651041d0
Ti1      0.005222271245989d0     0.007264025011176d0     0.497329591613826d0
Ti1      0.504932866409465d0     0.729370458432443d0     0.494860472781222d0
O1       0.002210419553194d0     0.487527516509991d0     0.591817672366397d0
O1       0.500397703650516d0     0.493560365367938d0     0.553253273317253d0
O1       0.691709371654744d0     0.727971446387141d0     0.640407667809061d0
O1       0.307245815281563d0     0.740266103169456d0     0.636670219388222d0
Ti1      0.503674618609971d0     0.995687479312791d0     0.646409747866314d0
Ti1      0.012648617596634d0     0.771268069819974d0     0.624425420244580d0
O1       0.500093721748991d0     0.500084921243389d0     0.186906639369252d0
O1       0.198268504441574d0     0.750236248865719d0     0.238667392858710d0
O1       0.801993766892315d0     0.749987153755059d0     0.238669098461250d0
N1       0.996196891777053d0     0.460020666790894d0     0.718024309012952d0
C1       0.132954875446917d0     0.430872382974705d0     0.756212295334542d0
H1       0.129909325259604d0     0.526117123673894d0     0.792915649946580d0
H1       0.254362997610848d0     0.314901411904792d0     0.748301033611622d0
N1       0.841539245947498d0     0.616948748121542d0     0.734432266047227d0
H1       0.904179817152915d0     0.777430756827287d0     0.737939557212362d0
H1       0.741378346808912d0     0.641351412368331d0     0.702202873651495d0
H1       0.766675892463981d0     0.566553007331700d0     0.768140176168031d0
O1       0.518243029802851d0     0.951265540875501d0     0.721675589177989d0
H1       0.476747408517456d0     0.071495109429417d0     0.744972266285959d0
K_POINTS automatic
4 4 1  0 0 0 
