&CONTROL
  calculation='relax',
  prefix='calc',
  pseudo_dir='/storage/coda1/p-amedford6/0/shared/rich_project_chbe-medford/medford-share/data/pseudos_module/espresso/nninc/pbe/van',
  outdir='.',
  tefield=.true.,
  dipfield=.true.,
  tprnfor=.true.,
  disk_io='none',
/
&SYSTEM
  ibrav=0,
  celldm(1)=1.8897261245650618d0,
  nat=56,
  ntyp=5,
  ecutwfc=29.39945797996531d00,
  ecutrho=293.9945797996531d00,
  nbnd=209,
  occupations='smearing',
  smearing='fd',
  degauss=0.007349864494991328d00,
  input_dft='BEEF-vdW',
  edir=3,
  emaxpos=0.984236056532769d00,
  eopreg=0.025d00,
  eamp=0.0d00,
  nosym=.false.,
  noinv=.false.,
  nosym_evc=.false.,
  no_t_rev=.false.,
/
&ELECTRONS
  diagonalization='david',
  conv_thr=7.349864494991327e-08,
  mixing_beta=0.05d00,
  electron_maxstep=1000,
  startingpot='file',
  startingwfc='atomic',
/
&IONS
  ion_dynamics='ipi',
/
&CELL
  cell_dynamics='ipi',
/
CELL_PARAMETERS alat
    6.579727202290808d0     0.000000000000000d0     0.000000000000000d0
   -0.000775132442404d0     5.961596420607155d0     0.000000000000000d0
    0.000000000000000d0    -0.000000000000000d0    25.155947251439940d0
ATOMIC_SPECIES
Ti1 47.867d00 Ti.UPF
O1 15.999d00 O.UPF
N1 14.007d00 N.UPF
C1 12.011d00 C.UPF
H1 1.008d00 H.UPF
ATOMIC_POSITIONS {crystal}
Ti1      0.000123603383822d0     0.499897385958536d0     0.238512187198856d0
Ti1      0.500142521004230d0     0.250038178055688d0     0.238522014307695d0
O1       0.000095322930372d0     0.000084774873452d0     0.317452257936818d0
O1       0.500112315057126d0     0.000084209992886d0     0.290342007718641d0
O1       0.698270105622955d0     0.250236102495782d0     0.369213011426276d0
O1       0.301995368073695d0     0.249987007385122d0     0.369214717028816d0
Ti1      0.500198167309398d0     0.485761668506182d0     0.364758343030283d0
Ti1      0.000261424674789d0     0.248709163236136d0     0.368424970923767d0
O1       0.499431324665598d0     0.002156941758666d0     0.452290535614839d0
O1       0.001882992193933d0     0.999479849154423d0     0.422099495650131d0
O1       0.195047314378541d0     0.251498740968249d0     0.504537091840499d0
O1       0.804345103273389d0     0.251865050966665d0     0.503577857020234d0
Ti1      0.001747117030571d0     0.501745827587764d0     0.497389903358761d0
Ti1      0.504413810483819d0     0.249522039264550d0     0.498540705699226d0
O1       0.994336581496878d0     0.989770816739038d0     0.583011357303264d0
O1       0.502551634414536d0     0.000270990431642d0     0.557243499032700d0
O1       0.689686845421611d0     0.263598882584731d0     0.640833398555382d0
O1       0.302869296268090d0     0.261294087358244d0     0.637572033418274d0
Ti1      0.495497655706259d0     0.506706527568741d0     0.625450093983499d0
Ti1      0.001337839445810d0     0.220295887628606d0     0.629848965215334d0
O1       0.500093721748991d0     0.000084921243389d0     0.186906639369252d0
O1       0.997927987950813d0     0.028150266905207d0     0.684814454166377d0
O1       0.198268504441574d0     0.250236248865719d0     0.238667392858710d0
O1       0.801993766892314d0     0.249987153755059d0     0.238669098461250d0
Ti1      0.000123603383822d0     0.999897385958536d0     0.238512187198856d0
Ti1      0.500142521004230d0     0.750038178055688d0     0.238522014307695d0
O1       0.000095322930372d0     0.500084774873452d0     0.317452257936818d0
O1       0.500112315057126d0     0.500084209992886d0     0.290342007718641d0
O1       0.698270105622955d0     0.750236102495782d0     0.369213011426276d0
O1       0.301995368073695d0     0.749987007385122d0     0.369214717028816d0
Ti1      0.500001644927041d0     0.985370751416071d0     0.364779031055315d0
Ti1      0.000183276761494d0     0.748948988039575d0     0.368476322807288d0
O1       0.499628038325387d0     0.499630744927134d0     0.452164019165584d0
O1       0.001460782485842d0     0.499964783615161d0     0.422656139091726d0
O1       0.195619733393058d0     0.750295555343590d0     0.503133901749777d0
O1       0.804194302481829d0     0.750023924295192d0     0.502192367852974d0
Ti1      0.003724971292214d0     0.000495583248656d0     0.496901657790978d0
Ti1      0.504552225238863d0     0.751039351904861d0     0.498133610926228d0
O1       0.994003763724815d0     0.510957862005593d0     0.592949724112685d0
O1       0.501115990145955d0     0.505760647361815d0     0.554405528003975d0
O1       0.686892601285408d0     0.751678130355064d0     0.644255773362849d0
O1       0.302621723075468d0     0.750754556178054d0     0.642708463365841d0
Ti1      0.503669760561457d0     0.008512391515600d0     0.630206943613936d0
Ti1      0.002889088961701d0     0.758088493399339d0     0.635744041160891d0
O1       0.500093721748991d0     0.500084921243389d0     0.186906639369252d0
O1       0.198268504441574d0     0.750236248865719d0     0.238667392858710d0
O1       0.801993766892315d0     0.749987153755059d0     0.238669098461250d0
N1       0.956171128773492d0     0.575255164650180d0     0.722503780084127d0
C1       0.114816694203720d0     0.527591304424342d0     0.758651378121789d0
H1       0.173281544960844d0     0.664975666461208d0     0.781565473696286d0
H1       0.202198123955005d0     0.377649540167130d0     0.751650335129706d0
H1       0.874747055815954d0     0.712057783659290d0     0.733431582841901d0
H1       0.858189425425488d0     0.444475546373786d0     0.717244585061159d0
O1       0.473890269168418d0     0.033015711011499d0     0.726202629238248d0
H1       0.588088303806562d0     0.959175296561124d0     0.743054624339562d0
H1       0.355315653202944d0     0.940026875200902d0     0.733232115053253d0
K_POINTS automatic
4 4 1  0 0 0 
