&CONTROL
  calculation='relax',
  prefix='calc',
  pseudo_dir='/storage/coda1/p-amedford6/0/shared/rich_project_chbe-medford/medford-share/data/pseudos_module/espresso/nninc/pbe/van',
  outdir='.',
  tefield=.true.,
  dipfield=.true.,
  tprnfor=.true.,
  disk_io='none',
/
&SYSTEM
  ibrav=0,
  celldm(1)=1.8897261245650618d0,
  nat=58,
  ntyp=5,
  ecutwfc=29.39945797996531d00,
  ecutrho=293.9945797996531d00,
  nbnd=212,
  occupations='smearing',
  smearing='fd',
  degauss=0.007349864494991328d00,
  input_dft='BEEF-vdW',
  edir=3,
  emaxpos=0.9959851430202931d00,
  eopreg=0.025d00,
  eamp=0.0d00,
  nosym=.false.,
  noinv=.false.,
  nosym_evc=.false.,
  no_t_rev=.false.,
/
&ELECTRONS
  diagonalization='david',
  conv_thr=7.349864494991327e-08,
  mixing_beta=0.05d00,
  electron_maxstep=1000,
  startingpot='file',
  startingwfc='atomic',
/
&IONS
  ion_dynamics='ipi',
/
&CELL
  cell_dynamics='ipi',
/
CELL_PARAMETERS alat
    6.579727202290808d0     0.000000000000000d0     0.000000000000000d0
   -0.000775132442404d0     5.961596420607155d0     0.000000000000000d0
    0.000000000000000d0    -0.000000000000000d0    25.155947251439940d0
ATOMIC_SPECIES
Ti1 47.867d00 Ti.UPF
O1 15.999d00 O.UPF
N1 14.007d00 N.UPF
C1 12.011d00 C.UPF
H1 1.008d00 H.UPF
ATOMIC_POSITIONS {crystal}
Ti1      0.000123603383822d0     0.499897385958536d0     0.238512187198856d0
Ti1      0.500142521004230d0     0.250038178055688d0     0.238522014307695d0
O1       0.000095322930372d0     0.000084774873452d0     0.317452257936818d0
O1       0.500112315057126d0     0.000084209992886d0     0.290342007718641d0
O1       0.698270105622955d0     0.250236102495782d0     0.369213011426276d0
O1       0.301995368073695d0     0.249987007385122d0     0.369214717028816d0
Ti1      0.500198167309398d0     0.485761668506182d0     0.364758343030283d0
Ti1      0.000261424674789d0     0.248709163236136d0     0.368424970923767d0
O1       0.500523874546193d0     0.999818129825642d0     0.450737028693108d0
O1       0.001882992193933d0     0.999479849154423d0     0.422099495650131d0
O1       0.196051504055004d0     0.248415919327230d0     0.501943015096228d0
O1       0.802365133498404d0     0.248424472920801d0     0.501566759739910d0
Ti1      0.009112219245280d0     0.505583477176493d0     0.500528844963904d0
Ti1      0.513150004932530d0     0.248256996368876d0     0.496773627135134d0
O1       0.997455116849323d0     0.000155368849016d0     0.582819265216957d0
O1       0.503536645456458d0     0.999800031539985d0     0.554230417267550d0
O1       0.689670741474314d0     0.263021854135261d0     0.637067239087657d0
O1       0.306159481697173d0     0.249220253792411d0     0.635097434645254d0
Ti1      0.493513754834458d0     0.505547607751676d0     0.623916223665377d0
Ti1      0.993639535851865d0     0.258858035123029d0     0.627415044660179d0
O1       0.500093721748991d0     0.000084921243389d0     0.186906639369252d0
O1       0.986334119676831d0     0.001848202403820d0     0.685910880547220d0
O1       0.198268504441574d0     0.250236248865719d0     0.238667392858710d0
O1       0.801993766892314d0     0.249987153755059d0     0.238669098461250d0
Ti1      0.000123603383822d0     0.999897385958536d0     0.238512187198856d0
Ti1      0.500142521004230d0     0.750038178055688d0     0.238522014307695d0
O1       0.000095322930372d0     0.500084774873452d0     0.317452257936818d0
O1       0.500112315057126d0     0.500084209992886d0     0.290342007718641d0
O1       0.698270105622955d0     0.750236102495782d0     0.369213011426276d0
O1       0.301995368073695d0     0.749987007385122d0     0.369214717028816d0
Ti1      0.500001644927041d0     0.985370751416071d0     0.364779031055315d0
Ti1      0.000183276761494d0     0.748948988039575d0     0.368476322807288d0
O1       0.501107577118729d0     0.499706262016310d0     0.450824157231803d0
O1       0.001460782485842d0     0.499964783615161d0     0.422656139091726d0
O1       0.195676436880982d0     0.751118139686954d0     0.502087463835853d0
O1       0.803250079591176d0     0.748938375239259d0     0.501621541537341d0
Ti1      0.009530986717552d0     0.004046750526216d0     0.498835932484418d0
Ti1      0.513612981519178d0     0.750446104722700d0     0.496808792889901d0
O1       0.999683192406856d0     0.495889799416661d0     0.582033483761079d0
O1       0.497430574603317d0     0.502294073268423d0     0.552607583008654d0
O1       0.690884340586736d0     0.738980097756684d0     0.638624049962168d0
O1       0.307523827425002d0     0.757005864548952d0     0.637693158108475d0
Ti1      0.495204109910856d0     0.006570987047975d0     0.627183207684739d0
Ti1      0.995218616086322d0     0.780260078038338d0     0.640361850058670d0
O1       0.500093721748991d0     0.500084921243389d0     0.186906639369252d0
O1       0.198268504441574d0     0.750236248865719d0     0.238667392858710d0
O1       0.801993766892315d0     0.749987153755059d0     0.238669098461250d0
N1       0.186626919638942d0     0.473880625211045d0     0.728765898743365d0
N1       0.015365649548560d0     0.490951480470754d0     0.692975449808160d0
C1       0.149539759410887d0     0.588739898562914d0     0.779033375787826d0
H1       0.012231582208596d0     0.528105943385657d0     0.799722147730376d0
H1       0.280141110540226d0     0.561672992671251d0     0.805063646671334d0
H1       0.131482986436482d0     0.768043468685607d0     0.771766209475657d0
H1       0.213403174868323d0     0.307779545049642d0     0.735415196957734d0
H1       0.884099885325923d0     0.468786072607207d0     0.714770734819796d0
O1       0.550956241064243d0     0.008779565365393d0     0.722107516896622d0
H1       0.700081399386282d0     0.005749370705975d0     0.720372626758994d0
H1       0.510193836863911d0     0.860877694658157d0     0.734175227029499d0
K_POINTS automatic
4 4 1  0 0 0 
