&CONTROL
  calculation='relax',
  prefix='calc',
  pseudo_dir='/storage/coda1/p-amedford6/0/shared/rich_project_chbe-medford/medford-share/data/pseudos_module/espresso/nninc/pbe/van',
  outdir='.',
  tefield=.true.,
  dipfield=.true.,
  tprnfor=.true.,
  disk_io='none',
/
&SYSTEM
  ibrav=0,
  celldm(1)=1.8897261245650618d0,
  nat=55,
  ntyp=5,
  ecutwfc=29.39945797996531d00,
  ecutrho=293.9945797996531d00,
  nbnd=209,
  occupations='smearing',
  smearing='fd',
  degauss=0.007349864494991328d00,
  input_dft='BEEF-vdW',
  edir=3,
  emaxpos=0.9764346622995193d00,
  eopreg=0.025d00,
  eamp=0.0d00,
  nosym=.false.,
  noinv=.false.,
  nosym_evc=.false.,
  no_t_rev=.false.,
/
&ELECTRONS
  diagonalization='david',
  conv_thr=7.349864494991327e-08,
  mixing_beta=0.05d00,
  electron_maxstep=1000,
  startingpot='file',
  startingwfc='atomic',
/
&IONS
  ion_dynamics='ipi',
/
&CELL
  cell_dynamics='ipi',
/
CELL_PARAMETERS alat
    6.579727202290808d0     0.000000000000000d0     0.000000000000000d0
   -0.000775132442404d0     5.961596420607155d0     0.000000000000000d0
    0.000000000000000d0    -0.000000000000000d0    25.155947251439940d0
ATOMIC_SPECIES
Ti1 47.867d00 Ti.UPF
O1 15.999d00 O.UPF
N1 14.007d00 N.UPF
C1 12.011d00 C.UPF
H1 1.008d00 H.UPF
ATOMIC_POSITIONS {crystal}
Ti1      0.000123603383822d0     0.499897385958536d0     0.238512187198856d0
Ti1      0.500142521004230d0     0.250038178055688d0     0.238522014307695d0
O1       0.000095322930372d0     0.000084774873452d0     0.317452257936818d0
O1       0.500112315057126d0     0.000084209992886d0     0.290342007718641d0
O1       0.698270105622955d0     0.250236102495782d0     0.369213011426276d0
O1       0.301995368073695d0     0.249987007385122d0     0.369214717028816d0
Ti1      0.500198167309398d0     0.485761668506182d0     0.364758343030283d0
Ti1      0.000261424674789d0     0.248709163236136d0     0.368424970923767d0
O1       0.500804934990630d0     0.002811885980724d0     0.448786515041670d0
O1       0.001882992193933d0     0.999479849154423d0     0.422099495650131d0
O1       0.200991905386670d0     0.252813266990794d0     0.501390143778454d0
O1       0.806447248944667d0     0.253212126923423d0     0.501938302485586d0
Ti1      0.985280969845248d0     0.503449297150517d0     0.506272379502830d0
Ti1      0.482349957639147d0     0.251162792370499d0     0.495864850051038d0
O1       0.003726473675446d0     0.000289602061120d0     0.580235117125559d0
O1       0.501291322739497d0     0.004355274281077d0     0.552095988342753d0
O1       0.692091575194015d0     0.261658957831910d0     0.635712992112877d0
O1       0.314998117814275d0     0.261645253371623d0     0.635568446131090d0
Ti1      0.505607171721623d0     0.508481799214178d0     0.622033243392716d0
Ti1      0.001298956787154d0     0.272111093423057d0     0.638376487896564d0
O1       0.500093721748991d0     0.000084921243389d0     0.186906639369252d0
O1       0.003146392012296d0     0.009197339774760d0     0.684066788162099d0
O1       0.198268504441574d0     0.250236248865719d0     0.238667392858710d0
O1       0.801993766892314d0     0.249987153755059d0     0.238669098461250d0
Ti1      0.000123603383822d0     0.999897385958536d0     0.238512187198856d0
Ti1      0.500142521004230d0     0.750038178055688d0     0.238522014307695d0
O1       0.000095322930372d0     0.500084774873452d0     0.317452257936818d0
O1       0.500112315057126d0     0.500084209992886d0     0.290342007718641d0
O1       0.698270105622955d0     0.750236102495782d0     0.369213011426276d0
O1       0.301995368073695d0     0.749987007385122d0     0.369214717028816d0
Ti1      0.500001644927041d0     0.985370751416071d0     0.364779031055315d0
Ti1      0.000183276761494d0     0.748948988039575d0     0.368476322807288d0
O1       0.500224895237590d0     0.502449436587756d0     0.448807071344199d0
O1       0.001460782485842d0     0.499964783615161d0     0.422656139091726d0
O1       0.200873141150281d0     0.751397881016824d0     0.501244958042102d0
O1       0.806481300311822d0     0.751443890124104d0     0.501874934679069d0
Ti1      0.990026230002676d0     0.003324430691486d0     0.507248110680109d0
Ti1      0.481956353988068d0     0.753804181248223d0     0.495616941161311d0
O1       0.000303236153475d0     0.500936449113699d0     0.582237373423439d0
O1       0.503312420634666d0     0.505268172143664d0     0.550508730014339d0
O1       0.692126386726573d0     0.755697233136589d0     0.636746789101263d0
O1       0.316172319916591d0     0.756240959940300d0     0.636835112340601d0
Ti1      0.498732311347314d0     0.010523611804795d0     0.625768445565805d0
Ti1      0.001253511830959d0     0.770835365055227d0     0.640138046264774d0
O1       0.500093721748991d0     0.500084921243389d0     0.186906639369252d0
O1       0.198268504441574d0     0.750236248865719d0     0.238667392858710d0
O1       0.801993766892315d0     0.749987153755059d0     0.238669098461250d0
N1       0.009968134906289d0     0.507865147427679d0     0.688308581230711d0
C1       0.051366821974572d0     0.506338701368976d0     0.744495208887193d0
H1       0.069151450085350d0     0.676182049449535d0     0.760664964856130d0
H1       0.927374273928463d0     0.424429234749070d0     0.765962685229786d0
H1       0.190150575007196d0     0.410875974610811d0     0.753374148312197d0
O1       0.506969855775516d0     0.019453097664200d0     0.721957960406837d0
H1       0.631052096767614d0     0.940209536109704d0     0.731156624793920d0
H1       0.394142126806334d0     0.928230970773779d0     0.734261726411274d0
K_POINTS automatic
4 4 1  0 0 0 
