&CONTROL
  calculation='relax',
  prefix='calc',
  pseudo_dir='/storage/coda1/p-amedford6/0/shared/rich_project_chbe-medford/medford-share/data/pseudos_module/espresso/nninc/pbe/van',
  outdir='.',
  tefield=.true.,
  dipfield=.true.,
  tprnfor=.true.,
  disk_io='none',
/
&SYSTEM
  ibrav=0,
  celldm(1)=1.8897261245650618d0,
  nat=53,
  ntyp=4,
  ecutwfc=29.39945797996531d00,
  ecutrho=293.9945797996531d00,
  nbnd=208,
  occupations='smearing',
  smearing='fd',
  degauss=0.007349864494991328d00,
  input_dft='BEEF-vdW',
  edir=3,
  emaxpos=0.9735336958676382d00,
  eopreg=0.025d00,
  eamp=0.0d00,
  nosym=.false.,
  noinv=.false.,
  nosym_evc=.false.,
  no_t_rev=.false.,
/
&ELECTRONS
  diagonalization='david',
  conv_thr=7.349864494991327e-08,
  mixing_beta=0.05d00,
  electron_maxstep=1000,
  startingpot='file',
  startingwfc='atomic',
/
&IONS
  ion_dynamics='ipi',
/
&CELL
  cell_dynamics='ipi',
/
CELL_PARAMETERS alat
    6.579727202290808d0     0.000000000000000d0     0.000000000000000d0
   -0.000775132442404d0     5.961596420607155d0     0.000000000000000d0
    0.000000000000000d0    -0.000000000000000d0    25.155947251439940d0
ATOMIC_SPECIES
O1 15.999d00 O.UPF
Ti1 47.867d00 Ti.UPF
C1 12.011d00 C.UPF
H1 1.008d00 H.UPF
ATOMIC_POSITIONS {crystal}
O1       0.500093721748991d0     0.000084921243389d0     0.186906639369252d0
O1       0.500093721748991d0     0.500084921243389d0     0.186906639369252d0
Ti1      0.000123603383822d0     0.499897385958537d0     0.238512187198856d0
Ti1      0.000123603383822d0     0.999897385958537d0     0.238512187198856d0
Ti1      0.500142521004230d0     0.250038178055688d0     0.238522014307695d0
Ti1      0.500142521004230d0     0.750038178055688d0     0.238522014307695d0
O1       0.198268504441574d0     0.250236248865719d0     0.238667392858710d0
O1       0.198268504441574d0     0.750236248865719d0     0.238667392858710d0
O1       0.801993766892314d0     0.249987153755059d0     0.238669098461250d0
O1       0.801993766892315d0     0.749987153755059d0     0.238669098461250d0
O1       0.500112315057126d0     0.000084209992886d0     0.290342007718641d0
O1       0.500112315057126d0     0.500084209992886d0     0.290342007718641d0
O1       0.000095322930372d0     0.000084774873452d0     0.317452257936818d0
O1       0.000095322930372d0     0.500084774873452d0     0.317452257936818d0
Ti1      0.499992203125638d0     0.009209119994033d0     0.363954629865871d0
Ti1      0.504698274263652d0     0.508579673101062d0     0.364325730512051d0
Ti1      0.003636021027620d0     0.759596803533392d0     0.368006848500364d0
Ti1      0.002674240112621d0     0.269668310347347d0     0.372110793920167d0
O1       0.698270105622955d0     0.250236102495782d0     0.369213011426276d0
O1       0.698270105622955d0     0.750236102495782d0     0.369213011426276d0
O1       0.301995368073695d0     0.249987007385122d0     0.369214717028816d0
O1       0.301995368073695d0     0.749987007385122d0     0.369214717028816d0
O1       0.000527942158172d0     0.002103202814334d0     0.421458379740512d0
O1       0.000368197159177d0     0.502022430530843d0     0.420519279537667d0
O1       0.500654681532952d0     0.503144429087055d0     0.451671335038285d0
O1       0.499996003008555d0     0.003380261742644d0     0.451603157613036d0
Ti1      0.004568181115642d0     0.005079797670746d0     0.496682687753544d0
Ti1      0.506908700398184d0     0.755119165084263d0     0.497391520746166d0
Ti1      0.506879098938715d0     0.252816912315651d0     0.497339072577211d0
Ti1      0.004557670120423d0     0.505664223530680d0     0.508354301568113d0
O1       0.194593109018715d0     0.753547117931515d0     0.502569713356198d0
O1       0.194556349811015d0     0.253362886537763d0     0.502638801692739d0
O1       0.803562593861036d0     0.753524573381115d0     0.502603593628116d0
O1       0.803508146279044d0     0.253004784342294d0     0.502624600369287d0
O1       0.498785694786887d0     0.504404210222349d0     0.553262446531853d0
O1       0.499519687937156d0     0.003822700760720d0     0.555681582304123d0
O1       0.000328905306354d0     0.002936219528514d0     0.583498783526543d0
O1       0.000104327496937d0     0.505633948901519d0     0.584766266312102d0
Ti1      0.499618588374583d0     0.505650994940229d0     0.624316800227316d0
Ti1      0.502223229605607d0     0.007100904587708d0     0.628937619572228d0
Ti1      0.002149109002649d0     0.768198646857926d0     0.634132431664090d0
Ti1      0.001624707159675d0     0.232124629466017d0     0.635096254035696d0
O1       0.691895542697712d0     0.749964587664576d0     0.638312985207944d0
O1       0.692526260207611d0     0.259548970340908d0     0.637743803678068d0
O1       0.306313018067427d0     0.260312996514693d0     0.638239861824254d0
O1       0.305933236167052d0     0.748474848443365d0     0.638869054776022d0
O1       0.000130374831536d0     0.005011757766298d0     0.683548198266070d0
O1       0.993398702130042d0     0.509095901849476d0     0.694448343341096d0
C1       0.971477840819767d0     0.516212928835496d0     0.744791393134386d0
H1       0.977780989252831d0     0.339674101389948d0     0.760160752366024d0
O1       0.500652767676091d0     0.013651562650647d0     0.722738137011817d0
H1       0.615970734365627d0     0.935607679109381d0     0.738252970100454d0
H1       0.378238258856960d0     0.948667289575586d0     0.737859083537848d0
K_POINTS automatic
4 4 1  0 0 0 
