&CONTROL
  calculation='relax',
  prefix='calc',
  pseudo_dir='/storage/coda1/p-amedford6/0/shared/rich_project_chbe-medford/medford-share/data/pseudos_module/espresso/nninc/pbe/van',
  outdir='.',
  tefield=.true.,
  dipfield=.true.,
  tprnfor=.true.,
  disk_io='none',
/
&SYSTEM
  ibrav=0,
  celldm(1)=1.8897261245650618d0,
  nat=54,
  ntyp=4,
  ecutwfc=29.39945797996531d00,
  ecutrho=293.9945797996531d00,
  nbnd=209,
  occupations='smearing',
  smearing='fd',
  degauss=0.007349864494991328d00,
  input_dft='BEEF-vdW',
  edir=3,
  emaxpos=0.974493971583741d00,
  eopreg=0.025d00,
  eamp=0.0d00,
  nosym=.false.,
  noinv=.false.,
  nosym_evc=.false.,
  no_t_rev=.false.,
/
&ELECTRONS
  diagonalization='david',
  conv_thr=7.349864494991327e-08,
  mixing_beta=0.05d00,
  electron_maxstep=1000,
  startingpot='file',
  startingwfc='atomic',
/
&IONS
  ion_dynamics='ipi',
/
&CELL
  cell_dynamics='ipi',
/
CELL_PARAMETERS alat
    6.579727202290808d0     0.000000000000000d0     0.000000000000000d0
   -0.000775132442404d0     5.961596420607155d0     0.000000000000000d0
    0.000000000000000d0    -0.000000000000000d0    25.155947251439940d0
ATOMIC_SPECIES
Ti1 47.867d00 Ti.UPF
O1 15.999d00 O.UPF
C1 12.011d00 C.UPF
H1 1.008d00 H.UPF
ATOMIC_POSITIONS {crystal}
Ti1      0.000123603383822d0     0.499897385958537d0     0.238512187198856d0
Ti1      0.500142521004230d0     0.250038178055688d0     0.238522014307695d0
O1       0.000095322930372d0     0.000084774873452d0     0.317452257936818d0
O1       0.500112315057126d0     0.000084209992886d0     0.290342007718641d0
O1       0.698270105622955d0     0.250236102495782d0     0.369213011426276d0
O1       0.301995368073695d0     0.249987007385122d0     0.369214717028816d0
Ti1      0.500958489748537d0     0.521150910840307d0     0.366438495916254d0
Ti1      0.002427587667741d0     0.270382286727931d0     0.371580631255443d0
O1       0.502691876770038d0     0.004115423161051d0     0.450080067015299d0
O1       0.001227077211980d0     0.003753294638470d0     0.421107755807997d0
O1       0.197554269193043d0     0.251845417855028d0     0.502043823385733d0
O1       0.808887443524812d0     0.251374281089163d0     0.502052495941468d0
Ti1      0.005207941018210d0     0.519926336299924d0     0.508972071916139d0
Ti1      0.502143353751371d0     0.263222095725956d0     0.494037267115731d0
O1       0.003977780431911d0     0.001738016624026d0     0.583592984883463d0
O1       0.504072281871067d0     0.994599631677512d0     0.553490721707795d0
O1       0.696803296885685d0     0.254810452060849d0     0.638189944626786d0
O1       0.312259178725659d0     0.257751621330278d0     0.636938020550546d0
Ti1      0.505883450754833d0     0.496204284812808d0     0.622739350188364d0
Ti1      0.014433911641363d0     0.239883387925295d0     0.634929226313425d0
O1       0.500093721748991d0     0.000084921243389d0     0.186906639369252d0
O1       0.011343583399651d0     0.002786256138212d0     0.683854047560461d0
O1       0.198268504441574d0     0.250236248865719d0     0.238667392858710d0
O1       0.801993766892314d0     0.249987153755059d0     0.238669098461250d0
Ti1      0.000123603383822d0     0.999897385958537d0     0.238512187198856d0
Ti1      0.500142521004230d0     0.750038178055688d0     0.238522014307695d0
O1       0.000095322930372d0     0.500084774873452d0     0.317452257936818d0
O1       0.500112315057126d0     0.500084209992886d0     0.290342007718641d0
O1       0.698270105622955d0     0.750236102495782d0     0.369213011426276d0
O1       0.301995368073695d0     0.749987007385122d0     0.369214717028816d0
Ti1      0.502301213542968d0     0.020534641676741d0     0.364986977110544d0
Ti1      0.001850675572158d0     0.765251099149020d0     0.372150787220601d0
O1       0.502451249991037d0     0.495992009301265d0     0.448770808027868d0
O1       0.001169921203323d0     0.504434632710701d0     0.419553850601128d0
O1       0.198159701621269d0     0.751471907054801d0     0.502336822318338d0
O1       0.809785001101424d0     0.752523062601659d0     0.502324037360094d0
Ti1      0.000922399020007d0     0.019346881152068d0     0.501587589762082d0
Ti1      0.503693469546371d0     0.782314438404957d0     0.504122916888599d0
O1       0.004971266348754d0     0.501871827643707d0     0.583617249979301d0
O1       0.506015903345871d0     0.500468049968579d0     0.551957970507715d0
O1       0.696309672980790d0     0.744311606153767d0     0.639481088819236d0
O1       0.312035826341848d0     0.741984474953237d0     0.637335628191729d0
Ti1      0.518118181522076d0     0.996303605542967d0     0.646541792464659d0
Ti1      0.016219024910932d0     0.764362936486304d0     0.638207231645628d0
O1       0.500093721748991d0     0.500084921243389d0     0.186906639369252d0
O1       0.198268504441574d0     0.750236248865719d0     0.238667392858710d0
O1       0.801993766892315d0     0.749987153755059d0     0.238669098461250d0
C1       0.915709368331500d0     0.493670438448564d0     0.740218294982672d0
O1       0.002034475874725d0     0.500380751852783d0     0.688100122929011d0
H1       0.751271382194010d0     0.469876315911152d0     0.737974794441000d0
H1       0.981346955367695d0     0.353152914061946d0     0.762081303798229d0
H1       0.946359535043482d0     0.651000421139568d0     0.760666203093654d0
O1       0.489315211623009d0     0.002253314724294d0     0.718966734521921d0
H1       0.354321702720591d0     0.021159014639967d0     0.733784216093999d0
K_POINTS automatic
4 4 1  0 0 0 
