&CONTROL
  calculation='relax',
  prefix='calc',
  pseudo_dir='/storage/coda1/p-amedford6/0/shared/rich_project_chbe-medford/medford-share/data/pseudos_module/espresso/sssp/prec/v1_1/nonrel',
  outdir='.',
  tefield=.true.,
  dipfield=.true.,
  tprnfor=.true.,
  disk_io='none',
/
&SYSTEM
  ibrav=0,
  celldm(1)=1.8897261245650618d0,
  nat=6,
  ntyp=2,
  ecutwfc=73.49864494991327d00,
  ecutrho=293.9945797996531d00,
  nbnd=17,
  occupations='smearing',
  smearing='fd',
  degauss=0.007349864494991328d00,
  input_dft='BEEF-vdW',
  edir=3,
  emaxpos=0.9996956040293301d00,
  eopreg=0.025d00,
  eamp=0.0d00,
  nosym=.false.,
  noinv=.false.,
  nosym_evc=.false.,
  no_t_rev=.false.,
/
&ELECTRONS
  diagonalization='david',
  conv_thr=7.349864494991327e-08,
  mixing_beta=0.05d00,
  electron_maxstep=1000,
  startingwfc='atomic',
/
&IONS
  ion_dynamics='ipi',
/
&CELL
  cell_dynamics='ipi',
/
CELL_PARAMETERS alat
   10.948214000000000d0     0.000000000000000d0     0.000000000000000d0
    0.000000000000000d0    11.092752000000001d0     0.000000000000000d0
    0.000000000000000d0     0.000000000000000d0    10.847887000000000d0
ATOMIC_SPECIES
N1 14.007d00 N.UPF
H1 1.008d00 H.UPF
ATOMIC_POSITIONS {crystal}
N1       0.499148312695976d0     0.564396752695027d0     0.468382178658478d0
N1       0.500851677140989d0     0.435603262646257d0     0.468382083780676d0
H1       0.519678960065308d0     0.599163944329163d0     0.553022767545760d0
H1       0.413004380835004d0     0.591368590096618d0     0.446368547955016d0
H1       0.480321078030140d0     0.400835987647266d0     0.553022599980788d0
H1       0.586995591232582d0     0.408631462585669d0     0.446368440512901d0
K_POINTS automatic
1 1 1  0 0 0 
