&CONTROL
  calculation='relax',
  prefix='calc',
  pseudo_dir='/storage/coda1/p-amedford6/0/shared/rich_project_chbe-medford/medford-share/data/pseudos_module/espresso/nninc/pbe/van',
  outdir='.',
  tefield=.true.,
  dipfield=.true.,
  tprnfor=.true.,
  disk_io='none',
/
&SYSTEM
  ibrav=0,
  celldm(1)=1.8897261245650618d0,
  nat=50,
  ntyp=4,
  ecutwfc=29.39945797996531d00,
  ecutrho=293.9945797996531d00,
  nbnd=204,
  occupations='smearing',
  smearing='fd',
  degauss=0.007349864494991328d00,
  input_dft='BEEF-vdW',
  edir=3,
  emaxpos=0.970982732784776d00,
  eopreg=0.025d00,
  eamp=0.0d00,
  nosym=.false.,
  noinv=.false.,
  nosym_evc=.false.,
  no_t_rev=.false.,
/
&ELECTRONS
  diagonalization='david',
  conv_thr=7.349864494991327e-08,
  mixing_beta=0.05d00,
  electron_maxstep=1000,
  startingpot='file',
  startingwfc='atomic',
/
&IONS
  ion_dynamics='ipi',
/
&CELL
  cell_dynamics='ipi',
/
CELL_PARAMETERS alat
    6.579727202290808d0     0.000000000000000d0     0.000000000000000d0
   -0.000775132442404d0     5.961596420607155d0     0.000000000000000d0
    0.000000000000000d0    -0.000000000000000d0    25.155947251439937d0
ATOMIC_SPECIES
Ti1 47.867d00 Ti.UPF
O1 15.999d00 O.UPF
N1 14.007d00 N.UPF
H1 1.008d00 H.UPF
ATOMIC_POSITIONS {crystal}
Ti1      0.000123603383822d0     0.499897385958537d0     0.238512187198856d0
Ti1      0.500142521004230d0     0.250038178055688d0     0.238522014307695d0
O1       0.000095322930372d0     0.000084774873452d0     0.317452257936818d0
O1       0.500112315057126d0     0.000084209992886d0     0.290342007718641d0
O1       0.698270105622955d0     0.250236102495782d0     0.369213011426276d0
O1       0.301995368073694d0     0.249987007385122d0     0.369214717028816d0
Ti1      0.500279256466379d0     0.509571765085637d0     0.363941660268389d0
Ti1      0.000173879985889d0     0.265693608982896d0     0.371766267516020d0
O1       0.500415085536275d0     0.002539938569373d0     0.450931717950935d0
O1       0.000242302683929d0     0.001652981173802d0     0.421100616377918d0
O1       0.196912836539861d0     0.253100508035004d0     0.501692306702175d0
O1       0.803619226955628d0     0.252981951738409d0     0.501709777490879d0
Ti1      0.001002121435043d0     0.506961553948692d0     0.506928434018781d0
Ti1      0.501533875361279d0     0.253346009566477d0     0.496192750984651d0
O1       0.000613557793203d0     0.003096611573471d0     0.581642558713588d0
O1       0.500177309412807d0     0.002822797784092d0     0.554308326387387d0
O1       0.689657402190164d0     0.254628464331169d0     0.639574196717562d0
O1       0.310941623729581d0     0.254339328460509d0     0.639416542995503d0
Ti1      0.499689317088229d0     0.502693785495214d0     0.624537823849870d0
Ti1      0.998480040396381d0     0.225508499126183d0     0.636188438431512d0
O1       0.500093721748991d0     0.000084921243389d0     0.186906639369252d0
O1       0.000222621478456d0     0.006115535942121d0     0.683394798113716d0
O1       0.198268504441573d0     0.250236248865719d0     0.238667392858710d0
O1       0.801993766892314d0     0.249987153755059d0     0.238669098461250d0
Ti1      0.000123603383822d0     0.999897385958537d0     0.238512187198856d0
Ti1      0.500142521004230d0     0.750038178055688d0     0.238522014307695d0
O1       0.000095322930372d0     0.500084774873452d0     0.317452257936818d0
O1       0.500112315057126d0     0.500084209992886d0     0.290342007718641d0
O1       0.698270105622955d0     0.750236102495782d0     0.369213011426276d0
O1       0.301995368073694d0     0.749987007385122d0     0.369214717028816d0
Ti1      0.500184082272010d0     0.009949610990589d0     0.363883391164063d0
Ti1      0.000173909962522d0     0.760149111895729d0     0.369758994062019d0
O1       0.500418214532657d0     0.502244639725944d0     0.450731990494494d0
O1       0.000191416881389d0     0.501925160080266d0     0.420156802063963d0
O1       0.197245445366266d0     0.752543016124263d0     0.501543230351396d0
O1       0.803265725863903d0     0.752511456317720d0     0.501564152489765d0
Ti1      0.001332089501148d0     0.006686384213398d0     0.499799508072116d0
Ti1      0.501545646838227d0     0.752530315227128d0     0.496010095448030d0
O1       0.000180084554044d0     0.507835356124020d0     0.582875670251483d0
O1       0.500272834730784d0     0.502511735797625d0     0.553135860189887d0
O1       0.690804919803326d0     0.749219267046656d0     0.639349289485724d0
O1       0.310258042662386d0     0.749596890436507d0     0.639204884332395d0
Ti1      0.498712492305564d0     0.003302850837103d0     0.625571777192062d0
Ti1      0.998349433921334d0     0.754867894148557d0     0.634111020116475d0
O1       0.500093721748991d0     0.500084921243389d0     0.186906639369252d0
O1       0.198268504441573d0     0.750236248865719d0     0.238667392858710d0
O1       0.801993766892314d0     0.749987153755059d0     0.238669098461250d0
N1       0.010740089415197d0     0.502059028139775d0     0.742027439332518d0
N1       0.003560123806357d0     0.512086391870804d0     0.692981329330019d0
H1       0.013188452682723d0     0.334916241545796d0     0.755058826200300d0
K_POINTS automatic
4 4 1  0 0 0 
