&CONTROL
  calculation='relax',
  prefix='calc',
  pseudo_dir='/storage/coda1/p-amedford6/0/shared/rich_project_chbe-medford/medford-share/data/pseudos_module/espresso/nninc/pbe/van',
  outdir='.',
  tefield=.true.,
  dipfield=.true.,
  tprnfor=.true.,
  disk_io='none',
/
&SYSTEM
  ibrav=0,
  celldm(1)=1.8897261245650618d0,
  nat=57,
  ntyp=4,
  ecutwfc=29.39945797996531d00,
  ecutrho=293.9945797996531d00,
  nbnd=229,
  occupations='smearing',
  smearing='fd',
  degauss=0.007349864494991328d00,
  input_dft='BEEF-vdW',
  edir=3,
  emaxpos=0.03779443719340425d00,
  eopreg=0.025d00,
  eamp=0.0d00,
  nosym=.false.,
  noinv=.false.,
  nosym_evc=.false.,
  no_t_rev=.false.,
/
&ELECTRONS
  diagonalization='david',
  conv_thr=7.349864494991327e-08,
  mixing_beta=0.05d00,
  electron_maxstep=1000,
  startingpot='file',
  startingwfc='atomic',
/
&IONS
  ion_dynamics='ipi',
/
&CELL
  cell_dynamics='ipi',
/
CELL_PARAMETERS alat
    6.579727202290808d0     0.000000000000000d0     0.000000000000000d0
   -0.001162698663605d0     8.942394630910734d0     0.000000000000000d0
    0.000000000000000d0    -0.000000000000000d0    25.155947251439940d0
ATOMIC_SPECIES
O1 15.999d00 O.UPF
Ti1 47.867d00 Ti.UPF
H1 1.008d00 H.UPF
N1 14.007d00 N.UPF
ATOMIC_POSITIONS {crystal}
O1       0.000111781329999d0     0.000056172521910d0     0.421099706309416d0
O1       0.500145576047018d0     0.999069508764786d0     0.552895286404866d0
O1       0.999910763553166d0     0.999006144254994d0     0.684800009173146d0
O1       0.000095322930372d0     0.000056516582301d0     0.317452257936818d0
O1       0.500087775848390d0     0.997144823118135d0     0.444777503097263d0
O1       0.000014880130477d0     0.002246146767345d0     0.581124706342429d0
O1       0.301995368073695d0     0.166658004923414d0     0.369214717028816d0
O1       0.794889550993608d0     0.177843064731719d0     0.499442765070974d0
O1       0.304866882949765d0     0.180080477853439d0     0.638729990837501d0
Ti1      0.000141987277103d0     0.166692151230444d0     0.369279712898471d0
Ti1      0.500105673103792d0     0.150022994105202d0     0.496948229704866d0
Ti1      0.000054246855436d0     0.139241681811559d0     0.635419901209168d0
O1       0.698270105622955d0     0.166824068330521d0     0.369213011426276d0
O1       0.205275340808959d0     0.177797274623724d0     0.499449886238855d0
O1       0.694950606624484d0     0.179956972849211d0     0.638735317617200d0
Ti1      0.500123069656695d0     0.333264956499010d0     0.369269885789632d0
Ti1      0.000049574541838d0     0.313309144632403d0     0.495936102936714d0
Ti1      0.499934224448464d0     0.325633209028237d0     0.624290215829015d0
O1       0.000111781329999d0     0.333389505855244d0     0.421099706309416d0
O1       0.500032781214205d0     0.331388895796038d0     0.552357202918084d0
O1       0.000095322930372d0     0.333389849915635d0     0.317452257936818d0
O1       0.500077265536517d0     0.331593733765470d0     0.444795491092419d0
O1       0.000046939065347d0     0.338164446433597d0     0.578417962912382d0
O1       0.301995368073695d0     0.499991338256748d0     0.369214717028816d0
O1       0.794439920475419d0     0.514406955571662d0     0.500181886107505d0
O1       0.306683290038276d0     0.507416382241074d0     0.637217784178053d0
Ti1      0.000141987277103d0     0.500025484563778d0     0.369279712898471d0
Ti1      0.500116157505620d0     0.483414939240730d0     0.497100152784471d0
Ti1      0.000320182694345d0     0.491583609351245d0     0.623699741973310d0
O1       0.698270105622955d0     0.500157401663855d0     0.369213011426276d0
O1       0.205767410530438d0     0.514412218847824d0     0.500195880003756d0
O1       0.693444287524633d0     0.507231172435028d0     0.637228189632352d0
Ti1      0.500123069656695d0     0.666598289832344d0     0.369269885789632d0
Ti1      0.000058976268144d0     0.649945244310268d0     0.495088013777959d0
Ti1      0.500469775001558d0     0.657630499180829d0     0.624465764517518d0
O1       0.000111781329999d0     0.666722839188577d0     0.421099706309416d0
O1       0.500190063618829d0     0.666842167224467d0     0.553097529094112d0
O1       0.000106213565743d0     0.666520305040350d0     0.688570244893503d0
O1       0.000095322930372d0     0.666723183248968d0     0.317452257936818d0
O1       0.500089755025459d0     0.664675248329907d0     0.444719944818064d0
O1       0.000051887247955d0     0.676715363159357d0     0.584002479876175d0
O1       0.301995368073695d0     0.833324671590081d0     0.369214717028816d0
O1       0.795496662692293d0     0.844614063201092d0     0.499880303971694d0
O1       0.307117174511381d0     0.844086271986229d0     0.637979519344589d0
Ti1      0.000141987277103d0     0.833358817897111d0     0.369279712898471d0
Ti1      0.500155897091909d0     0.816849697823575d0     0.496793861027253d0
Ti1      0.000483607486406d0     0.822788337297574d0     0.639526255119701d0
O1       0.698270105622955d0     0.833490734997188d0     0.369213011426276d0
O1       0.204749199131007d0     0.844591921011956d0     0.499898258930180d0
O1       0.692879991594770d0     0.843796830610285d0     0.637980313603506d0
Ti1      0.500123069656695d0     0.999931623165677d0     0.369269885789632d0
Ti1      0.000110913355442d0     0.980934700996664d0     0.496923002636230d0
Ti1      0.500343328706064d0     0.990751273387889d0     0.624485777135152d0
H1       0.999701899282796d0     0.628984275731553d0     0.724739794051592d0
N1       0.999697312906567d0     0.370582916044884d0     0.736671132101448d0
N1       0.998407287956207d0     0.347425067865604d0     0.688548824788874d0
H1       0.999594201711987d0     0.270442279679269d0     0.758136616449990d0
K_POINTS automatic
4 4 1  0 0 0 
