&CONTROL
  calculation='relax',
  prefix='calc',
  pseudo_dir='/storage/coda1/p-amedford6/0/shared/rich_project_chbe-medford/medford-share/data/pseudos_module/espresso/nninc/pbe/van',
  outdir='.',
  tefield=.true.,
  dipfield=.true.,
  tprnfor=.true.,
  disk_io='none',
/
&SYSTEM
  ibrav=0,
  celldm(1)=1.8897261245650618d0,
  nat=52,
  ntyp=5,
  ecutwfc=29.39945797996531d00,
  ecutrho=293.9945797996531d00,
  nbnd=205,
  occupations='smearing',
  smearing='fd',
  degauss=0.007349864494991328d00,
  input_dft='BEEF-vdW',
  edir=3,
  emaxpos=0.9888203948782324d00,
  eopreg=0.025d00,
  eamp=0.0d00,
  nosym=.false.,
  noinv=.false.,
  nosym_evc=.false.,
  no_t_rev=.false.,
/
&ELECTRONS
  diagonalization='david',
  conv_thr=7.349864494991327e-08,
  mixing_beta=0.05d00,
  electron_maxstep=1000,
  startingpot='file',
  startingwfc='atomic',
/
&IONS
  ion_dynamics='ipi',
/
&CELL
  cell_dynamics='ipi',
/
CELL_PARAMETERS alat
    6.579727202290808d0     0.000000000000000d0     0.000000000000000d0
   -0.000775132442404d0     5.961596420607155d0     0.000000000000000d0
    0.000000000000000d0    -0.000000000000000d0    25.155947251439940d0
ATOMIC_SPECIES
Ti1 47.867d00 Ti.UPF
O1 15.999d00 O.UPF
N1 14.007d00 N.UPF
C1 12.011d00 C.UPF
H1 1.008d00 H.UPF
ATOMIC_POSITIONS {crystal}
Ti1      0.000123603383822d0     0.499897385958536d0     0.238512187198856d0
Ti1      0.500142521004230d0     0.250038178055688d0     0.238522014307695d0
O1       0.000095322930372d0     0.000084774873452d0     0.317452257936818d0
O1       0.500112315057126d0     0.000084209992886d0     0.290342007718641d0
O1       0.698270105622955d0     0.250236102495782d0     0.369213011426276d0
O1       0.301995368073695d0     0.249987007385122d0     0.369214717028816d0
Ti1      0.500198167309398d0     0.485761668506182d0     0.364758343030283d0
Ti1      0.000261424674789d0     0.248709163236136d0     0.368424970923767d0
O1       0.499522994230790d0     0.994539025898570d0     0.452041916793667d0
O1       0.001882992193933d0     0.999479849154423d0     0.422099495650131d0
O1       0.196359153270237d0     0.246390317977703d0     0.502969050375678d0
O1       0.803835387919595d0     0.246349717688280d0     0.502477729603159d0
Ti1      0.001197035534054d0     0.494751193841990d0     0.498397408704319d0
Ti1      0.500917729914747d0     0.245010093679189d0     0.497595033420512d0
O1       0.998559444269251d0     0.004440763595413d0     0.583511758429379d0
O1       0.501684372737902d0     0.996490256450946d0     0.556252780173227d0
O1       0.689536393765084d0     0.245629528473242d0     0.644406437192943d0
O1       0.309305260118182d0     0.244504911221912d0     0.643877486637356d0
Ti1      0.498884369791914d0     0.492875252860521d0     0.625966176079785d0
Ti1      0.997405908088905d0     0.234420358292066d0     0.638645112081224d0
O1       0.500093721748991d0     0.000084921243389d0     0.186906639369252d0
O1       0.000873599001500d0     0.974871494352228d0     0.684182735353597d0
O1       0.198268504441574d0     0.250236248865719d0     0.238667392858710d0
O1       0.801993766892314d0     0.249987153755059d0     0.238669098461250d0
Ti1      0.000123603383822d0     0.999897385958536d0     0.238512187198856d0
Ti1      0.500142521004230d0     0.750038178055688d0     0.238522014307695d0
O1       0.000095322930372d0     0.500084774873452d0     0.317452257936818d0
O1       0.500112315057126d0     0.500084209992886d0     0.290342007718641d0
O1       0.698270105622955d0     0.750236102495782d0     0.369213011426276d0
O1       0.301995368073695d0     0.749987007385122d0     0.369214717028816d0
Ti1      0.500001644927041d0     0.985370751416071d0     0.364779031055315d0
Ti1      0.000183276761494d0     0.748948988039575d0     0.368476322807288d0
O1       0.499745746042683d0     0.496462449712672d0     0.451789907749462d0
O1       0.001460782485842d0     0.499964783615161d0     0.422656139091726d0
O1       0.195950402528610d0     0.745301531198508d0     0.504171913212399d0
O1       0.804091904349944d0     0.745250835543750d0     0.503621881812119d0
Ti1      0.000655176325659d0     0.996044739428112d0     0.497295388723486d0
Ti1      0.501052567830864d0     0.744596024551905d0     0.497964020544502d0
O1       0.997901894169260d0     0.486686310018384d0     0.592501866980697d0
O1       0.500654588563374d0     0.492571586481012d0     0.554830253170020d0
O1       0.689690741062781d0     0.739274770051672d0     0.642428499046945d0
O1       0.309296421508686d0     0.741222679132781d0     0.640611637688767d0
Ti1      0.500528379005319d0     0.992369024974032d0     0.627672280138170d0
Ti1      0.001939784263703d0     0.771707057868274d0     0.630080769732057d0
O1       0.500093721748991d0     0.500084921243389d0     0.186906639369252d0
O1       0.198268504441574d0     0.750236248865719d0     0.238667392858710d0
O1       0.801993766892315d0     0.749987153755059d0     0.238669098461250d0
N1       0.996780024418014d0     0.449848966396097d0     0.713637672914062d0
C1       0.127767410553670d0     0.428511341606541d0     0.751572080104730d0
H1       0.103310961965338d0     0.496261162315732d0     0.790734150387212d0
H1       0.267290897897492d0     0.338093564011365d0     0.743211031882472d0
H1       0.869377972550560d0     0.534551245792228d0     0.725052458698421d0
K_POINTS automatic
4 4 1  0 0 0 
