&CONTROL
  calculation='relax',
  prefix='calc',
  pseudo_dir='/storage/coda1/p-amedford6/0/shared/rich_project_chbe-medford/medford-share/data/pseudos_module/espresso/nninc/pbe/van',
  outdir='.',
  tefield=.true.,
  dipfield=.true.,
  tprnfor=.true.,
  disk_io='none',
/
&SYSTEM
  ibrav=0,
  celldm(1)=1.8897261245650618d0,
  nat=55,
  ntyp=5,
  ecutwfc=29.39945797996531d00,
  ecutrho=293.9945797996531d00,
  nbnd=206,
  occupations='smearing',
  smearing='fd',
  degauss=0.007349864494991328d00,
  input_dft='BEEF-vdW',
  edir=3,
  emaxpos=0.0027839900017481156d00,
  eopreg=0.025d00,
  eamp=0.0d00,
  nosym=.false.,
  noinv=.false.,
  nosym_evc=.false.,
  no_t_rev=.false.,
/
&ELECTRONS
  diagonalization='david',
  conv_thr=7.349864494991327e-08,
  mixing_beta=0.05d00,
  electron_maxstep=1000,
  startingpot='file',
  startingwfc='atomic',
/
&IONS
  ion_dynamics='ipi',
/
&CELL
  cell_dynamics='ipi',
/
CELL_PARAMETERS alat
    6.579727202290808d0     0.000000000000000d0     0.000000000000000d0
   -0.000775132442404d0     5.961596420607155d0     0.000000000000000d0
    0.000000000000000d0    -0.000000000000000d0    25.155947251439940d0
ATOMIC_SPECIES
Ti1 47.867d00 Ti.UPF
O1 15.999d00 O.UPF
N1 14.007d00 N.UPF
C1 12.011d00 C.UPF
H1 1.008d00 H.UPF
ATOMIC_POSITIONS {crystal}
Ti1      0.000123603383822d0     0.499897385958536d0     0.238512187198856d0
Ti1      0.500142521004230d0     0.250038178055688d0     0.238522014307695d0
O1       0.000095322930372d0     0.000084774873452d0     0.317452257936818d0
O1       0.500112315057126d0     0.000084209992886d0     0.290342007718641d0
O1       0.698270105622955d0     0.250236102495782d0     0.369213011426276d0
O1       0.301995368073695d0     0.249987007385122d0     0.369214717028816d0
Ti1      0.500198167309398d0     0.485761668506182d0     0.364758343030283d0
Ti1      0.000261424674789d0     0.248709163236136d0     0.368424970923767d0
O1       0.496127067987715d0     0.996485489942811d0     0.453499162753555d0
O1       0.001882992193933d0     0.999479849154423d0     0.422099495650131d0
O1       0.192166567508310d0     0.249090946557650d0     0.504643301642342d0
O1       0.800846298038692d0     0.248608261537133d0     0.503462169777941d0
Ti1      0.996668792324722d0     0.497191950054552d0     0.496588501862976d0
Ti1      0.495785035040835d0     0.246738487904748d0     0.498996475084357d0
O1       0.991760791651507d0     0.999637941874727d0     0.583689996218505d0
O1       0.497036300691173d0     0.996863812007425d0     0.558766419339896d0
O1       0.686622405867754d0     0.246697289465636d0     0.647903673889015d0
O1       0.294979297151626d0     0.247885714217877d0     0.645866234005321d0
Ti1      0.493864410138781d0     0.493529033806235d0     0.628518117005645d0
Ti1      0.993403190794529d0     0.224415063998061d0     0.634547313390641d0
O1       0.500093721748991d0     0.000084921243389d0     0.186906639369252d0
O1       0.992266029660365d0     0.987952352412246d0     0.693007224230653d0
O1       0.198268504441574d0     0.250236248865719d0     0.238667392858710d0
O1       0.801993766892314d0     0.249987153755059d0     0.238669098461250d0
Ti1      0.000123603383822d0     0.999897385958536d0     0.238512187198856d0
Ti1      0.500142521004230d0     0.750038178055688d0     0.238522014307695d0
O1       0.000095322930372d0     0.500084774873452d0     0.317452257936818d0
O1       0.500112315057126d0     0.500084209992886d0     0.290342007718641d0
O1       0.698270105622955d0     0.750236102495782d0     0.369213011426276d0
O1       0.301995368073695d0     0.749987007385122d0     0.369214717028816d0
Ti1      0.500001644927041d0     0.985370751416071d0     0.364779031055315d0
Ti1      0.000183276761494d0     0.748948988039575d0     0.368476322807288d0
O1       0.496278545150166d0     0.497226841857819d0     0.453162771166469d0
O1       0.001460782485842d0     0.499964783615161d0     0.422656139091726d0
O1       0.192109941847437d0     0.746082476311115d0     0.505097131461153d0
O1       0.800939696718705d0     0.746374128784865d0     0.503877831228871d0
Ti1      0.995940599711398d0     0.997771552675459d0     0.496933925729867d0
Ti1      0.495951804457912d0     0.745921851865267d0     0.499188419548442d0
O1       0.987493445946690d0     0.492552563061874d0     0.596466709543266d0
O1       0.497383675724896d0     0.495330010639554d0     0.557301220496233d0
O1       0.686596078725605d0     0.741500946854949d0     0.646887720454200d0
O1       0.295946789578088d0     0.741263885642496d0     0.644918317314066d0
Ti1      0.492831611029080d0     0.995092759717253d0     0.630124007750803d0
Ti1      0.996323815876423d0     0.764161293002563d0     0.631617873136341d0
O1       0.500093721748991d0     0.500084921243389d0     0.186906639369252d0
O1       0.198268504441574d0     0.750236248865719d0     0.238667392858710d0
O1       0.801993766892315d0     0.749987153755059d0     0.238669098461250d0
N1       0.739600458654766d0     0.768233606614038d0     0.774357474717154d0
C1       0.870497103802830d0     0.575844815686023d0     0.787685099824613d0
H1       0.961216398609882d0     0.532089507374098d0     0.752499939505319d0
H1       0.976240673186087d0     0.623919877871906d0     0.818661340634244d0
H1       0.788447320255693d0     0.424867490613633d0     0.799791759122342d0
H1       0.897824514292183d0     0.962660986035158d0     0.722584353899416d0
H1       0.639978412446814d0     0.725752896586252d0     0.745228932753553d0
H1       0.656465158923679d0     0.814309234358907d0     0.806450815925188d0
K_POINTS automatic
4 4 1  0 0 0 
