&CONTROL
  calculation='relax',
  prefix='calc',
  pseudo_dir='/storage/coda1/p-amedford6/0/shared/rich_project_chbe-medford/medford-share/data/pseudos_module/espresso/nninc/pbe/van',
  outdir='.',
  tefield=.true.,
  dipfield=.true.,
  tprnfor=.true.,
  disk_io='none',
/
&SYSTEM
  ibrav=0,
  celldm(1)=1.8897261245650618d0,
  nat=52,
  ntyp=5,
  ecutwfc=29.39945797996531d00,
  ecutrho=293.9945797996531d00,
  nbnd=205,
  occupations='smearing',
  smearing='fd',
  degauss=0.007349864494991328d00,
  input_dft='BEEF-vdW',
  edir=3,
  emaxpos=0.9775226872443481d00,
  eopreg=0.025d00,
  eamp=0.0d00,
  nosym=.false.,
  noinv=.false.,
  nosym_evc=.false.,
  no_t_rev=.false.,
/
&ELECTRONS
  diagonalization='david',
  conv_thr=7.349864494991327e-08,
  mixing_beta=0.05d00,
  electron_maxstep=1000,
  startingpot='file',
  startingwfc='atomic',
/
&IONS
  ion_dynamics='ipi',
/
&CELL
  cell_dynamics='ipi',
/
CELL_PARAMETERS alat
    6.579727202290808d0     0.000000000000000d0     0.000000000000000d0
   -0.000775132442404d0     5.961596420607155d0     0.000000000000000d0
    0.000000000000000d0    -0.000000000000000d0    25.155947251439940d0
ATOMIC_SPECIES
Ti1 47.867d00 Ti.UPF
O1 15.999d00 O.UPF
N1 14.007d00 N.UPF
C1 12.011d00 C.UPF
H1 1.008d00 H.UPF
ATOMIC_POSITIONS {crystal}
Ti1      0.000123603383822d0     0.499897385958536d0     0.238512187198856d0
Ti1      0.500142521004230d0     0.250038178055688d0     0.238522014307695d0
O1       0.000095322930372d0     0.000084774873452d0     0.317452257936818d0
O1       0.500112315057126d0     0.000084209992886d0     0.290342007718641d0
O1       0.698270105622955d0     0.250236102495782d0     0.369213011426276d0
O1       0.301995368073695d0     0.249987007385122d0     0.369214717028816d0
Ti1      0.500198167309398d0     0.485761668506182d0     0.364758343030283d0
Ti1      0.000261424674789d0     0.248709163236136d0     0.368424970923767d0
O1       0.501943098746078d0     0.999972358370452d0     0.449081833329066d0
O1       0.001882992193933d0     0.999479849154423d0     0.422099495650131d0
O1       0.202981226018385d0     0.251085884006179d0     0.501435384012140d0
O1       0.807408409453054d0     0.251654414893990d0     0.502164394895728d0
Ti1      0.986622266353060d0     0.501164651936527d0     0.507142806331935d0
Ti1      0.483634251346952d0     0.249499069626041d0     0.495574563687489d0
O1       0.005062948407452d0     0.998295751929514d0     0.580152305469308d0
O1       0.503933867014101d0     0.001756837525052d0     0.551705946017885d0
O1       0.692134027396767d0     0.256777899992793d0     0.638164013346924d0
O1       0.319384557984404d0     0.256159205700841d0     0.637888262493459d0
Ti1      0.505241765055298d0     0.505262196555275d0     0.623593809030631d0
Ti1      0.002894765801133d0     0.270004130984973d0     0.639513740532473d0
O1       0.500093721748991d0     0.000084921243389d0     0.186906639369252d0
O1       0.006739242434067d0     0.010142565434236d0     0.683901152905320d0
O1       0.198268504441574d0     0.250236248865719d0     0.238667392858710d0
O1       0.801993766892314d0     0.249987153755059d0     0.238669098461250d0
Ti1      0.000123603383822d0     0.999897385958536d0     0.238512187198856d0
Ti1      0.500142521004230d0     0.750038178055688d0     0.238522014307695d0
O1       0.000095322930372d0     0.500084774873452d0     0.317452257936818d0
O1       0.500112315057126d0     0.500084209992886d0     0.290342007718641d0
O1       0.698270105622955d0     0.750236102495782d0     0.369213011426276d0
O1       0.301995368073695d0     0.749987007385122d0     0.369214717028816d0
Ti1      0.500001644927041d0     0.985370751416071d0     0.364779031055315d0
Ti1      0.000183276761494d0     0.748948988039575d0     0.368476322807288d0
O1       0.502031574366120d0     0.500440736545670d0     0.449008813252336d0
O1       0.001460782485842d0     0.499964783615161d0     0.422656139091726d0
O1       0.203290282714617d0     0.749205128836966d0     0.501365014549286d0
O1       0.807220499857218d0     0.749055897992803d0     0.502199825873326d0
Ti1      0.990750974715939d0     0.000975316503647d0     0.507617218612335d0
Ti1      0.483471474525463d0     0.749303367744446d0     0.495593245926784d0
O1       0.001566429677489d0     0.499280344814546d0     0.582602070284784d0
O1       0.503779516330711d0     0.502027557558402d0     0.551747024193322d0
O1       0.692727689237331d0     0.756332141682583d0     0.638107000356049d0
O1       0.319525724766363d0     0.756876582136267d0     0.638055629385117d0
Ti1      0.503756933752505d0     0.005316949057887d0     0.623696652794490d0
Ti1      0.003242718580954d0     0.769541549858025d0     0.641539777029950d0
O1       0.500093721748991d0     0.500084921243389d0     0.186906639369252d0
O1       0.198268504441574d0     0.750236248865719d0     0.238667392858710d0
O1       0.801993766892315d0     0.749987153755059d0     0.238669098461250d0
N1       0.014289943147542d0     0.507129258718146d0     0.688735135520861d0
C1       0.065125305614087d0     0.505526131066380d0     0.744589925206129d0
H1       0.110907226482397d0     0.671528896538480d0     0.758319008718113d0
H1       0.933914666546844d0     0.450591363073658d0     0.768138735119444d0
H1       0.188519598469645d0     0.386488082911746d0     0.752635166139614d0
K_POINTS automatic
4 4 1  0 0 0 
