&CONTROL
  calculation='relax',
  prefix='calc',
  pseudo_dir='/storage/coda1/p-amedford6/0/shared/rich_project_chbe-medford/medford-share/data/pseudos_module/espresso/nninc/pbe/van',
  outdir='.',
  tefield=.true.,
  dipfield=.true.,
  tprnfor=.true.,
  disk_io='none',
/
&SYSTEM
  ibrav=0,
  celldm(1)=1.8897261245650618d0,
  nat=52,
  ntyp=5,
  ecutwfc=29.39945797996531d00,
  ecutrho=293.9945797996531d00,
  nbnd=207,
  occupations='smearing',
  smearing='fd',
  degauss=0.007349864494991328d00,
  input_dft='BEEF-vdW',
  edir=3,
  emaxpos=0.9869356460801983d00,
  eopreg=0.025d00,
  eamp=0.0d00,
  nosym=.false.,
  noinv=.false.,
  nosym_evc=.false.,
  no_t_rev=.false.,
/
&ELECTRONS
  diagonalization='david',
  conv_thr=7.349864494991327e-08,
  mixing_beta=0.05d00,
  electron_maxstep=1000,
  startingwfc='atomic',
/
&IONS
  ion_dynamics='ipi',
/
&CELL
  cell_dynamics='ipi',
/
CELL_PARAMETERS alat
    6.579727202290808d0     0.000000000000000d0     0.000000000000000d0
   -0.000775132442404d0     5.961596420607155d0     0.000000000000000d0
    0.000000000000000d0    -0.000000000000000d0    25.155947251439940d0
ATOMIC_SPECIES
Ti1 47.867d00 Ti.UPF
O1 15.999d00 O.UPF
N1 14.007d00 N.UPF
C1 12.011d00 C.UPF
H1 1.008d00 H.UPF
ATOMIC_POSITIONS {crystal}
Ti1      0.000123603383822d0     0.499897385958536d0     0.238512187198856d0
Ti1      0.500142521004230d0     0.250038178055688d0     0.238522014307695d0
O1       0.000095322930372d0     0.000084774873452d0     0.317452257936818d0
O1       0.500112315057126d0     0.000084209992886d0     0.290342007718641d0
O1       0.698270105622955d0     0.250236102495782d0     0.369213011426276d0
O1       0.301995368073695d0     0.249987007385122d0     0.369214717028816d0
Ti1      0.500198167309398d0     0.485761668506182d0     0.364758343030283d0
Ti1      0.000261424674789d0     0.248709163236136d0     0.368424970923767d0
O1       0.503474904582096d0     0.997514542132362d0     0.451899159275897d0
O1       0.001882992193933d0     0.999479849154423d0     0.422099495650131d0
O1       0.200203523256585d0     0.248141775933374d0     0.503161339935837d0
O1       0.808517149574032d0     0.248159212612035d0     0.503266008756960d0
Ti1      0.006727578919933d0     0.496091480263318d0     0.498817945197329d0
Ti1      0.507860859603100d0     0.247192408100152d0     0.497644539114538d0
O1       0.003045565488816d0     0.992738716411790d0     0.584293240780579d0
O1       0.505840721233846d0     0.996889458655720d0     0.556340817404070d0
O1       0.695808833277780d0     0.248875747330605d0     0.643752248113205d0
O1       0.313436837167225d0     0.246718685284557d0     0.642238018379818d0
Ti1      0.504206215023119d0     0.493992005687879d0     0.625745483717610d0
Ti1      0.006458225274164d0     0.217034847628932d0     0.636822989210446d0
O1       0.500093721748991d0     0.000084921243389d0     0.186906639369252d0
O1       0.007056179906428d0     0.995388637727888d0     0.685036834698038d0
O1       0.198268504441574d0     0.250236248865719d0     0.238667392858710d0
O1       0.801993766892314d0     0.249987153755059d0     0.238669098461250d0
Ti1      0.000123603383822d0     0.999897385958536d0     0.238512187198856d0
Ti1      0.500142521004230d0     0.750038178055688d0     0.238522014307695d0
O1       0.000095322930372d0     0.500084774873452d0     0.317452257936818d0
O1       0.500112315057126d0     0.500084209992886d0     0.290342007718641d0
O1       0.698270105622955d0     0.750236102495782d0     0.369213011426276d0
O1       0.301995368073695d0     0.749987007385122d0     0.369214717028816d0
Ti1      0.500001644927041d0     0.985370751416071d0     0.364779031055315d0
Ti1      0.000183276761494d0     0.748948988039575d0     0.368476322807288d0
O1       0.504272336669069d0     0.497902172099251d0     0.451669673037111d0
O1       0.001460782485842d0     0.499964783615161d0     0.422656139091726d0
O1       0.200927303177175d0     0.748026818073262d0     0.503110890685115d0
O1       0.807671175359986d0     0.748026747266343d0     0.503214786789599d0
Ti1      0.005789947866679d0     0.996160091217866d0     0.497098541324421d0
Ti1      0.507325746055401d0     0.746919199396749d0     0.497534842369067d0
O1       0.005756275208501d0     0.496956702781128d0     0.590530871067262d0
O1       0.504829719511688d0     0.497097990716919d0     0.554641432334461d0
O1       0.696808264390398d0     0.740802025082445d0     0.643114321921421d0
O1       0.314468038644169d0     0.741921185335799d0     0.642816813666777d0
Ti1      0.506155123030792d0     0.994443171531091d0     0.627769847380190d0
Ti1      0.004160429691630d0     0.753177876519960d0     0.631935482691243d0
O1       0.500093721748991d0     0.500084921243389d0     0.186906639369252d0
O1       0.198268504441574d0     0.750236248865719d0     0.238667392858710d0
O1       0.801993766892315d0     0.749987153755059d0     0.238669098461250d0
N1       0.135787085012771d0     0.513243272762409d0     0.742025443805688d0
C1       0.287223166620824d0     0.494490377175644d0     0.767302072489084d0
H1       0.383357353470103d0     0.616618640029713d0     0.786964652791144d0
N1       0.995826519321503d0     0.497179211132745d0     0.707810062508011d0
H1       0.856279270222031d0     0.494311194744342d0     0.725677623504315d0
K_POINTS automatic
4 4 1  0 0 0 
