&CONTROL
  calculation='relax',
  prefix='calc',
  pseudo_dir='/storage/coda1/p-amedford6/0/shared/rich_project_chbe-medford/medford-share/data/pseudos_module/espresso/nninc/pbe/van',
  outdir='.',
  tefield=.true.,
  dipfield=.true.,
  tprnfor=.true.,
  disk_io='none',
/
&SYSTEM
  ibrav=0,
  celldm(1)=1.8897261245650618d0,
  nat=55,
  ntyp=5,
  ecutwfc=29.39945797996531d00,
  ecutrho=293.9945797996531d00,
  nbnd=211,
  occupations='smearing',
  smearing='fd',
  degauss=0.007349864494991328d00,
  input_dft='BEEF-vdW',
  edir=3,
  emaxpos=0.9896572409146851d00,
  eopreg=0.025d00,
  eamp=0.0d00,
  nosym=.false.,
  noinv=.false.,
  nosym_evc=.false.,
  no_t_rev=.false.,
/
&ELECTRONS
  diagonalization='david',
  conv_thr=7.349864494991327e-08,
  mixing_beta=0.05d00,
  electron_maxstep=1000,
  startingwfc='atomic',
/
&IONS
  ion_dynamics='ipi',
/
&CELL
  cell_dynamics='ipi',
/
CELL_PARAMETERS alat
    6.579727202290808d0     0.000000000000000d0     0.000000000000000d0
   -0.000775132442404d0     5.961596420607155d0     0.000000000000000d0
    0.000000000000000d0    -0.000000000000000d0    25.155947251439940d0
ATOMIC_SPECIES
Ti1 47.867d00 Ti.UPF
O1 15.999d00 O.UPF
C1 12.011d00 C.UPF
H1 1.008d00 H.UPF
N1 14.007d00 N.UPF
ATOMIC_POSITIONS {crystal}
Ti1      0.000123603383822d0     0.499897385958537d0     0.238512187198856d0
Ti1      0.500142521004230d0     0.250038178055688d0     0.238522014307695d0
O1       0.000095322930372d0     0.000084774873452d0     0.317452257936818d0
O1       0.500112315057126d0     0.000084209992886d0     0.290342007718641d0
O1       0.698270105622955d0     0.250236102495782d0     0.369213011426276d0
O1       0.301995368073695d0     0.249987007385122d0     0.369214717028816d0
Ti1      0.504313078424689d0     0.497958769733035d0     0.363945970529125d0
Ti1      0.006516470600295d0     0.251736566330471d0     0.368429913969684d0
O1       0.500907823194804d0     0.995865812587960d0     0.451783070414810d0
O1       0.000771038341942d0     0.998929285454010d0     0.421596675419833d0
O1       0.197680359408502d0     0.245474594971182d0     0.502896872738821d0
O1       0.805503920771479d0     0.245545792547945d0     0.502925585761361d0
Ti1      0.999863142169501d0     0.496572215772446d0     0.498456268020522d0
Ti1      0.499680782487323d0     0.245962657501279d0     0.497127568139167d0
O1       0.003523830751438d0     0.989709152553180d0     0.583647914420818d0
O1       0.503329369740675d0     0.994340645319556d0     0.556255983240937d0
O1       0.696202773381832d0     0.245978002974011d0     0.644448133572361d0
O1       0.312738236512303d0     0.243688447785216d0     0.641826772224235d0
Ti1      0.504911060585181d0     0.492648887456041d0     0.625257202107699d0
Ti1      0.011579264047250d0     0.228529495976199d0     0.630337731380968d0
O1       0.500093721748991d0     0.000084921243389d0     0.186906639369252d0
O1       0.007678869767741d0     0.991659741179669d0     0.684141652397732d0
O1       0.198268504441574d0     0.250236248865719d0     0.238667392858710d0
O1       0.801993766892314d0     0.249987153755059d0     0.238669098461250d0
Ti1      0.000123603383822d0     0.999897385958537d0     0.238512187198856d0
Ti1      0.500142521004230d0     0.750038178055688d0     0.238522014307695d0
O1       0.000095322930372d0     0.500084774873452d0     0.317452257936818d0
O1       0.500112315057126d0     0.500084209992886d0     0.290342007718641d0
O1       0.698270105622955d0     0.750236102495782d0     0.369213011426276d0
O1       0.301995368073695d0     0.749987007385122d0     0.369214717028816d0
Ti1      0.505785223671092d0     0.997948541988196d0     0.363872982752798d0
Ti1      0.006567559582201d0     0.749573305922834d0     0.368315397697402d0
O1       0.500806339424716d0     0.495825581189436d0     0.451490434639575d0
O1       0.000707837307826d0     0.498566923890306d0     0.422427276667265d0
O1       0.197709059635271d0     0.745227130579385d0     0.502781079432455d0
O1       0.805157047354864d0     0.745175712533880d0     0.502797729490650d0
Ti1      0.000538380225391d0     0.995910333946008d0     0.496108476297433d0
Ti1      0.499670203358267d0     0.745558779363834d0     0.497102204976233d0
O1       0.003648321838481d0     0.489763394138063d0     0.590425731195028d0
O1       0.502578712480435d0     0.494137501886071d0     0.554346598605060d0
O1       0.696833551924458d0     0.738086760047045d0     0.642603375012864d0
O1       0.313850006979492d0     0.736777206234494d0     0.643166130954601d0
Ti1      0.505819470937610d0     0.991275904296290d0     0.627458747836023d0
Ti1      0.003070942776357d0     0.766436175457152d0     0.636422993300135d0
O1       0.500093721748991d0     0.500084921243389d0     0.186906639369252d0
O1       0.198268504441574d0     0.750236248865719d0     0.238667392858710d0
O1       0.801993766892315d0     0.749987153755059d0     0.238669098461250d0
C1       0.124710013719431d0     0.451967554813511d0     0.750398111358947d0
O1       0.987538935350476d0     0.476977820341719d0     0.705337037508328d0
H1       0.208081122426959d0     0.609013888331709d0     0.754362180850987d0
H1       0.856216460975587d0     0.408944640126249d0     0.713382256838274d0
H1       0.036897756070540d0     0.418759729811228d0     0.786206708432997d0
H1       0.228627854659000d0     0.313189256755463d0     0.742738933997702d0
N1       0.691649889952976d0     0.879191695898569d0     0.792407842460118d0
N1       0.690603379526847d0     0.059619117486862d0     0.782321861431058d0
K_POINTS automatic
4 4 1  0 0 0 
