&CONTROL
  calculation='relax',
  prefix='calc',
  pseudo_dir='/storage/coda1/p-amedford6/0/shared/rich_project_chbe-medford/medford-share/data/pseudos_module/espresso/nninc/pbe/van',
  outdir='.',
  tefield=.true.,
  dipfield=.true.,
  tprnfor=.true.,
  disk_io='none',
/
&SYSTEM
  ibrav=0,
  celldm(1)=1.8897261245650618d0,
  nat=55,
  ntyp=5,
  ecutwfc=29.39945797996531d00,
  ecutrho=293.9945797996531d00,
  nbnd=211,
  occupations='smearing',
  smearing='fd',
  degauss=0.007349864494991328d00,
  input_dft='BEEF-vdW',
  edir=3,
  emaxpos=0.9856979007031355d00,
  eopreg=0.025d00,
  eamp=0.0d00,
  nosym=.false.,
  noinv=.false.,
  nosym_evc=.false.,
  no_t_rev=.false.,
/
&ELECTRONS
  diagonalization='david',
  conv_thr=7.349864494991327e-08,
  mixing_beta=0.05d00,
  electron_maxstep=1000,
  startingwfc='atomic',
/
&IONS
  ion_dynamics='ipi',
/
&CELL
  cell_dynamics='ipi',
/
CELL_PARAMETERS alat
    6.579727202290808d0     0.000000000000000d0     0.000000000000000d0
   -0.000775132442404d0     5.961596420607155d0     0.000000000000000d0
    0.000000000000000d0    -0.000000000000000d0    25.155947251439940d0
ATOMIC_SPECIES
Ti1 47.867d00 Ti.UPF
O1 15.999d00 O.UPF
C1 12.011d00 C.UPF
H1 1.008d00 H.UPF
N1 14.007d00 N.UPF
ATOMIC_POSITIONS {crystal}
Ti1      0.000123603383822d0     0.499897385958537d0     0.238512187198856d0
Ti1      0.500142521004230d0     0.250038178055688d0     0.238522014307695d0
O1       0.000095322930372d0     0.000084774873452d0     0.317452257936818d0
O1       0.500112315057126d0     0.000084209992886d0     0.290342007718641d0
O1       0.698270105622955d0     0.250236102495782d0     0.369213011426276d0
O1       0.301995368073695d0     0.249987007385122d0     0.369214717028816d0
Ti1      0.494164301759303d0     0.501033821707482d0     0.363986963466955d0
Ti1      0.993348078844711d0     0.252425958081481d0     0.368433149408114d0
O1       0.503141533330417d0     0.997257671472576d0     0.452110138794381d0
O1       0.000671544468815d0     0.999395385628261d0     0.421749538949587d0
O1       0.199047249975370d0     0.248084025452317d0     0.502619607920850d0
O1       0.806878083081124d0     0.247550010907929d0     0.503350688874659d0
Ti1      0.005845036496068d0     0.496399488688538d0     0.498188977666235d0
Ti1      0.506952654217931d0     0.245549731165786d0     0.497614735780472d0
O1       0.007547596724659d0     0.999264349021144d0     0.583946498583327d0
O1       0.502204358920008d0     0.998203357102014d0     0.556678506827932d0
O1       0.697765149245288d0     0.249588872502992d0     0.642744220001726d0
O1       0.314358707919745d0     0.252683487648220d0     0.644398378115319d0
Ti1      0.506232002669885d0     0.497001073420234d0     0.625614441912174d0
Ti1      0.001379209420644d0     0.238503144407546d0     0.631072207000088d0
O1       0.500093721748991d0     0.000084921243389d0     0.186906639369252d0
O1       0.004522052535162d0     0.997266617002299d0     0.684801822666654d0
O1       0.198268504441574d0     0.250236248865719d0     0.238667392858710d0
O1       0.801993766892314d0     0.249987153755059d0     0.238669098461250d0
Ti1      0.000123603383822d0     0.999897385958537d0     0.238512187198856d0
Ti1      0.500142521004230d0     0.750038178055688d0     0.238522014307695d0
O1       0.000095322930372d0     0.500084774873452d0     0.317452257936818d0
O1       0.500112315057126d0     0.500084209992886d0     0.290342007718641d0
O1       0.698270105622955d0     0.750236102495782d0     0.369213011426276d0
O1       0.301995368073695d0     0.749987007385122d0     0.369214717028816d0
Ti1      0.495868139431063d0     0.001092735241103d0     0.363921503229756d0
Ti1      0.993063285995928d0     0.750857114483441d0     0.368351026801241d0
O1       0.503721779535486d0     0.496929624032203d0     0.451751681472877d0
O1       0.000553180445355d0     0.499156727801447d0     0.422390462766410d0
O1       0.198960159364663d0     0.747216319868041d0     0.502698946933362d0
O1       0.806959740017633d0     0.748030209019484d0     0.503320903245916d0
Ti1      0.005470807572747d0     0.995911346532237d0     0.496376853436655d0
Ti1      0.506871093606877d0     0.744950374950288d0     0.497234390374066d0
O1       0.005018623439402d0     0.496296689771767d0     0.590685572284937d0
O1       0.502695731744663d0     0.497808442938401d0     0.554642670329985d0
O1       0.697485398538329d0     0.744481184655415d0     0.642996174843493d0
O1       0.314300949075801d0     0.742206458733108d0     0.643961387883198d0
Ti1      0.504240237204096d0     0.996580296749584d0     0.627828760977182d0
Ti1      0.005214662696027d0     0.776171142520172d0     0.636439623280334d0
O1       0.500093721748991d0     0.500084921243389d0     0.186906639369252d0
O1       0.198268504441574d0     0.750236248865719d0     0.238667392858710d0
O1       0.801993766892315d0     0.749987153755059d0     0.238669098461250d0
C1       0.895168677518245d0     0.477396049727928d0     0.750921247680878d0
O1       0.020820977577681d0     0.493254072746654d0     0.703382416108490d0
H1       0.756209265832837d0     0.569175245123651d0     0.742457759718679d0
H1       0.163233088494508d0     0.471317261400404d0     0.712205345168073d0
H1       0.862411181026153d0     0.301731060490156d0     0.759059972466014d0
H1       0.975094951411771d0     0.555167425109624d0     0.784100572940309d0
N1       0.375526937049952d0     0.919892650346253d0     0.784489162037018d0
N1       0.406228964663475d0     0.095719767686564d0     0.773141899390519d0
K_POINTS automatic
4 4 1  0 0 0 
