&CONTROL
  calculation='relax',
  prefix='calc',
  pseudo_dir='/storage/coda1/p-amedford6/0/shared/rich_project_chbe-medford/medford-share/data/pseudos_module/espresso/nninc/pbe/van',
  outdir='.',
  tefield=.true.,
  dipfield=.true.,
  tprnfor=.true.,
  disk_io='none',
/
&SYSTEM
  ibrav=0,
  celldm(1)=1.8897261245650618d0,
  nat=51,
  ntyp=5,
  ecutwfc=29.39945797996531d00,
  ecutrho=293.9945797996531d00,
  nbnd=206,
  occupations='smearing',
  smearing='fd',
  degauss=0.007349864494991328d00,
  input_dft='BEEF-vdW',
  edir=3,
  emaxpos=0.9703403551406807d00,
  eopreg=0.025d00,
  eamp=0.0d00,
  nosym=.false.,
  noinv=.false.,
  nosym_evc=.false.,
  no_t_rev=.false.,
/
&ELECTRONS
  diagonalization='david',
  conv_thr=7.349864494991327e-08,
  mixing_beta=0.05d00,
  electron_maxstep=1000,
  startingpot='file',
  startingwfc='atomic',
/
&IONS
  ion_dynamics='ipi',
/
&CELL
  cell_dynamics='ipi',
/
CELL_PARAMETERS alat
    6.579727202290808d0     0.000000000000000d0     0.000000000000000d0
   -0.000775132442404d0     5.961596420607155d0     0.000000000000000d0
    0.000000000000000d0    -0.000000000000000d0    25.155947251439940d0
ATOMIC_SPECIES
Ti1 47.867d00 Ti.UPF
O1 15.999d00 O.UPF
C1 12.011d00 C.UPF
H1 1.008d00 H.UPF
N1 14.007d00 N.UPF
ATOMIC_POSITIONS {crystal}
Ti1      0.000123603383822d0     0.499897385958536d0     0.238512187198856d0
Ti1      0.500142521004230d0     0.250038178055688d0     0.238522014307695d0
O1       0.000095322930372d0     0.000084774873452d0     0.317452257936818d0
O1       0.500112315057126d0     0.000084209992886d0     0.290342007718641d0
O1       0.698270105622955d0     0.250236102495782d0     0.369213011426276d0
O1       0.301995368073695d0     0.249987007385122d0     0.369214717028816d0
Ti1      0.500198167309398d0     0.485761668506182d0     0.364758343030283d0
Ti1      0.000261424674789d0     0.248709163236136d0     0.368424970923767d0
O1       0.500860721744485d0     0.999359940801645d0     0.450349577721881d0
O1       0.001882992193933d0     0.999479849154423d0     0.422099495650131d0
O1       0.196445540392245d0     0.248390576517187d0     0.501433465418500d0
O1       0.801893119556151d0     0.250215306637530d0     0.501316422691503d0
Ti1      0.009806685585158d0     0.494304604094092d0     0.501687843246369d0
Ti1      0.514165073565946d0     0.249244203753883d0     0.495916765776210d0
O1       0.000900539433187d0     0.002838731839017d0     0.581649208254769d0
O1       0.500677375152875d0     0.000941857298052d0     0.553287208813344d0
O1       0.691064129103932d0     0.255578284328526d0     0.637341830167944d0
O1       0.311826797554442d0     0.255265159065430d0     0.638235064314352d0
Ti1      0.499017414072737d0     0.503776913806664d0     0.623766629528328d0
Ti1      0.002383454044580d0     0.254775740314671d0     0.629637833137172d0
O1       0.500093721748991d0     0.000084921243389d0     0.186906639369252d0
O1       0.999072595369763d0     0.004293278818496d0     0.683107969011312d0
O1       0.198268504441574d0     0.250236248865719d0     0.238667392858710d0
O1       0.801993766892314d0     0.249987153755059d0     0.238669098461250d0
Ti1      0.000123603383822d0     0.999897385958536d0     0.238512187198856d0
Ti1      0.500142521004230d0     0.750038178055688d0     0.238522014307695d0
O1       0.000095322930372d0     0.500084774873452d0     0.317452257936818d0
O1       0.500112315057126d0     0.500084209992886d0     0.290342007718641d0
O1       0.698270105622955d0     0.750236102495782d0     0.369213011426276d0
O1       0.301995368073695d0     0.749987007385122d0     0.369214717028816d0
Ti1      0.500001644927041d0     0.985370751416071d0     0.364779031055315d0
Ti1      0.000183276761494d0     0.748948988039575d0     0.368476322807288d0
O1       0.500885883333542d0     0.500427610701090d0     0.450230097287777d0
O1       0.001460782485842d0     0.499964783615161d0     0.422656139091726d0
O1       0.196330583753737d0     0.749738203708626d0     0.501921162096957d0
O1       0.802550558096016d0     0.750657760992691d0     0.501747447964844d0
Ti1      0.010525851707545d0     0.993910581991614d0     0.498909951014188d0
Ti1      0.514518172082666d0     0.748979273873638d0     0.496077672577268d0
O1       0.002737651607569d0     0.493890446687899d0     0.582543939860034d0
O1       0.499393473506560d0     0.501559690115359d0     0.552393831688061d0
O1       0.690503099460441d0     0.751409644965264d0     0.638347892350956d0
O1       0.311941578749660d0     0.751996470581153d0     0.638966782830626d0
Ti1      0.504462123910999d0     0.002986030209924d0     0.624763208400289d0
Ti1      0.002987056213344d0     0.781334208371334d0     0.639016797585203d0
O1       0.500093721748991d0     0.500084921243389d0     0.186906639369252d0
O1       0.198268504441574d0     0.750236248865719d0     0.238667392858710d0
O1       0.801993766892315d0     0.749987153755059d0     0.238669098461250d0
C1       0.004391113576338d0     0.496985618141331d0     0.699980011230704d0
H1       0.145302361202180d0     0.487891184758210d0     0.722529976513904d0
N1       0.845789849417391d0     0.488386519098402d0     0.730919955617759d0
N1       0.696363326360728d0     0.481868377498881d0     0.753774070912109d0
K_POINTS automatic
4 4 1  0 0 0 
