&CONTROL
  calculation='relax',
  prefix='calc',
  pseudo_dir='/storage/coda1/p-amedford6/0/shared/rich_project_chbe-medford/medford-share/data/pseudos_module/espresso/nninc/pbe/van',
  outdir='.',
  tefield=.true.,
  dipfield=.true.,
  tprnfor=.true.,
  disk_io='none',
/
&SYSTEM
  ibrav=0,
  celldm(1)=1.8897261245650618d0,
  nat=61,
  ntyp=4,
  ecutwfc=29.39945797996531d00,
  ecutrho=293.9945797996531d00,
  nbnd=231,
  occupations='smearing',
  smearing='fd',
  degauss=0.007349864494991328d00,
  input_dft='BEEF-vdW',
  edir=3,
  emaxpos=0.03194181522313433d00,
  eopreg=0.025d00,
  eamp=0.0d00,
  nosym=.false.,
  noinv=.false.,
  nosym_evc=.false.,
  no_t_rev=.false.,
/
&ELECTRONS
  diagonalization='david',
  conv_thr=7.349864494991327e-08,
  mixing_beta=0.05d00,
  electron_maxstep=1000,
  startingpot='file',
  startingwfc='atomic',
/
&IONS
  ion_dynamics='ipi',
/
&CELL
  cell_dynamics='ipi',
/
CELL_PARAMETERS alat
    6.579727202290808d0     0.000000000000000d0     0.000000000000000d0
   -0.001162698663605d0     8.942394630910734d0     0.000000000000000d0
    0.000000000000000d0    -0.000000000000000d0    25.155947251439940d0
ATOMIC_SPECIES
O1 15.999d00 O.UPF
Ti1 47.867d00 Ti.UPF
N1 14.007d00 N.UPF
H1 1.008d00 H.UPF
ATOMIC_POSITIONS {crystal}
O1       0.000111781329999d0     0.000056172521910d0     0.421099706309416d0
O1       0.500094677664786d0     0.998893252114462d0     0.551959316650087d0
O1       0.000013338777257d0     0.005813854564137d0     0.689132669912660d0
O1       0.000095322930372d0     0.000056516582301d0     0.317452257936818d0
O1       0.500071795347115d0     0.998516416866169d0     0.444640122258150d0
O1       0.000065128669477d0     0.005432122042258d0     0.581045254073159d0
O1       0.301995368073695d0     0.166658004923414d0     0.369214717028816d0
O1       0.796318226246469d0     0.177865653631195d0     0.499613421692240d0
O1       0.303863364846026d0     0.173242398280889d0     0.640503188658668d0
Ti1      0.000141987277103d0     0.166692151230444d0     0.369279712898471d0
Ti1      0.500092485569844d0     0.148162975942649d0     0.494995725309406d0
Ti1      0.000116840006725d0     0.150436715867028d0     0.626482470139265d0
O1       0.698270105622955d0     0.166824068330521d0     0.369213011426276d0
O1       0.203866083633906d0     0.177918439292120d0     0.499621465248995d0
O1       0.696085866318691d0     0.173112060555499d0     0.640523899909588d0
Ti1      0.500123069656695d0     0.333264956499010d0     0.369269885789632d0
Ti1      0.000151340110233d0     0.315065332460516d0     0.494404446840723d0
Ti1      0.500033272943255d0     0.325727472527520d0     0.623850083085428d0
O1       0.000111781329999d0     0.333389505855244d0     0.421099706309416d0
O1       0.500141083974125d0     0.327868473277424d0     0.552363751256610d0
O1       0.000095322930372d0     0.333389849915635d0     0.317452257936818d0
O1       0.500138507816383d0     0.332493435913049d0     0.445321641282115d0
O1       0.999974487057065d0     0.328776198481392d0     0.586226962625404d0
O1       0.301995368073695d0     0.499991338256748d0     0.369214717028816d0
O1       0.798104621797961d0     0.509779597861350d0     0.501088990037859d0
O1       0.303891490378727d0     0.492190148841730d0     0.639049594714052d0
Ti1      0.000141987277103d0     0.500025484563778d0     0.369279712898471d0
Ti1      0.500235433385106d0     0.484150195277101d0     0.498951053794460d0
Ti1      0.000285301141955d0     0.507258117323535d0     0.626440970181729d0
O1       0.698270105622955d0     0.500157401663855d0     0.369213011426276d0
O1       0.202162382107831d0     0.509721120226547d0     0.501081676001110d0
O1       0.696272263357853d0     0.492167463371312d0     0.639082286209199d0
Ti1      0.500123069656695d0     0.666598289832344d0     0.369269885789632d0
Ti1      0.000292792254487d0     0.648940779139881d0     0.494495886377974d0
Ti1      0.500346434505464d0     0.653058844829189d0     0.643604246911088d0
O1       0.000111781329999d0     0.666722839188577d0     0.421099706309416d0
O1       0.500093782670776d0     0.664891878002110d0     0.555109337864962d0
O1       0.000144248274775d0     0.659549892708135d0     0.683730625647026d0
O1       0.000095322930372d0     0.666723183248968d0     0.317452257936818d0
O1       0.500101909116789d0     0.663834558523602d0     0.446578972828757d0
O1       0.000186096539900d0     0.668728694288887d0     0.583023949769986d0
O1       0.301995368073695d0     0.833324671590081d0     0.369214717028816d0
O1       0.798163853440280d0     0.841446296994303d0     0.500612321729090d0
O1       0.301071618204923d0     0.847042403589817d0     0.638150546861629d0
Ti1      0.000141987277103d0     0.833358817897111d0     0.369279712898471d0
Ti1      0.500074342120234d0     0.804166551008746d0     0.502844393222273d0
Ti1      0.000255060158337d0     0.814347648152950d0     0.641289286566903d0
O1       0.698270105622955d0     0.833490734997188d0     0.369213011426276d0
O1       0.201917620046831d0     0.841435339773556d0     0.500617623760750d0
O1       0.699120168903581d0     0.846852843487017d0     0.638109251387904d0
Ti1      0.500123069656695d0     0.999931623165677d0     0.369269885789632d0
Ti1      0.000066546409471d0     0.979637165251382d0     0.494911898192930d0
Ti1      0.500223861874641d0     0.989777223363908d0     0.623923879014253d0
N1       0.500135452324071d0     0.669031704597257d0     0.720567429514256d0
H1       0.499915585144608d0     0.582302516124152d0     0.746431372509450d0
H1       0.499688212660686d0     0.766478189622199d0     0.741050962561065d0
H1       0.998257684381992d0     0.993893633916042d0     0.727134700843064d0
N1       0.999935091499740d0     0.358086950230500d0     0.712119733367889d0
H1       0.999864953369903d0     0.251635601086845d0     0.726065139394511d0
H1       0.875357339346587d0     0.411107027327398d0     0.726639034531605d0
H1       0.124366173483370d0     0.411121323476119d0     0.726707072112732d0
K_POINTS automatic
4 4 1  0 0 0 
