&CONTROL
  calculation='relax',
  prefix='calc',
  pseudo_dir='/storage/coda1/p-amedford6/0/shared/rich_project_chbe-medford/medford-share/data/pseudos_module/espresso/nninc/pbe/van',
  outdir='.',
  tefield=.true.,
  dipfield=.true.,
  tprnfor=.true.,
  disk_io='none',
/
&SYSTEM
  ibrav=0,
  celldm(1)=1.8897261245650618d0,
  nat=54,
  ntyp=4,
  ecutwfc=29.39945797996531d00,
  ecutrho=293.9945797996531d00,
  nbnd=209,
  occupations='smearing',
  smearing='fd',
  degauss=0.007349864494991328d00,
  input_dft='BEEF-vdW',
  edir=3,
  emaxpos=0.9720486852004969d00,
  eopreg=0.025d00,
  eamp=0.0d00,
  nosym=.false.,
  noinv=.false.,
  nosym_evc=.false.,
  no_t_rev=.false.,
/
&ELECTRONS
  diagonalization='david',
  conv_thr=7.349864494991327e-08,
  mixing_beta=0.05d00,
  electron_maxstep=1000,
  startingwfc='atomic',
/
&IONS
  ion_dynamics='ipi',
/
&CELL
  cell_dynamics='ipi',
/
CELL_PARAMETERS alat
    6.579727202290808d0     0.000000000000000d0     0.000000000000000d0
   -0.000775132442404d0     5.961596420607155d0     0.000000000000000d0
    0.000000000000000d0    -0.000000000000000d0    25.155947251439940d0
ATOMIC_SPECIES
Ti1 47.867d00 Ti.UPF
O1 15.999d00 O.UPF
C1 12.011d00 C.UPF
H1 1.008d00 H.UPF
ATOMIC_POSITIONS {crystal}
Ti1      0.000123603383822d0     0.499897385958537d0     0.238512187198856d0
Ti1      0.500142521004230d0     0.250038178055688d0     0.238522014307695d0
O1       0.000095322930372d0     0.000084774873452d0     0.317452257936818d0
O1       0.500112315057126d0     0.000084209992886d0     0.290342007718641d0
O1       0.698270105622955d0     0.250236102495782d0     0.369213011426276d0
O1       0.301995368073695d0     0.249987007385122d0     0.369214717028816d0
Ti1      0.504700275882804d0     0.504321887163456d0     0.364188120780685d0
Ti1      0.005563595220469d0     0.252545318054902d0     0.368473490196463d0
O1       0.502110691580015d0     0.000808885884700d0     0.452563618718747d0
O1       0.000361296943158d0     0.000299650641685d0     0.421329422491643d0
O1       0.197404133363849d0     0.250670856723571d0     0.502542635519050d0
O1       0.805825749804898d0     0.250452834935577d0     0.503095070010417d0
Ti1      0.003124345464122d0     0.502452646198551d0     0.498728332273183d0
Ti1      0.502874846629561d0     0.251544582697975d0     0.498007750656015d0
O1       0.004661514324757d0     0.001062348928728d0     0.582106366734144d0
O1       0.500157938698424d0     0.999544755427073d0     0.558163292263331d0
O1       0.698200487884578d0     0.255720566724294d0     0.640842746995937d0
O1       0.310261446640624d0     0.258267822800976d0     0.642138246006447d0
Ti1      0.505410201607784d0     0.499618097864992d0     0.625054819159527d0
Ti1      0.002188937645976d0     0.230074270602188d0     0.632173098808666d0
O1       0.500093721748991d0     0.000084921243389d0     0.186906639369252d0
O1       0.003685111596470d0     0.999111601828637d0     0.682516271517875d0
O1       0.198268504441574d0     0.250236248865719d0     0.238667392858710d0
O1       0.801993766892314d0     0.249987153755059d0     0.238669098461250d0
Ti1      0.000123603383822d0     0.999897385958537d0     0.238512187198856d0
Ti1      0.500142521004230d0     0.750038178055688d0     0.238522014307695d0
O1       0.000095322930372d0     0.500084774873452d0     0.317452257936818d0
O1       0.500112315057126d0     0.500084209992886d0     0.290342007718641d0
O1       0.698270105622955d0     0.750236102495782d0     0.369213011426276d0
O1       0.301995368073695d0     0.749987007385122d0     0.369214717028816d0
Ti1      0.504064568475575d0     0.004266427820576d0     0.363957623175692d0
Ti1      0.005595431714472d0     0.749796206999761d0     0.368385419994988d0
O1       0.502143723646450d0     0.500958021510778d0     0.452231075536635d0
O1       0.000706540861380d0     0.500365765394716d0     0.422311856688772d0
O1       0.197327962939776d0     0.750634885398330d0     0.502601151234725d0
O1       0.805919698213107d0     0.750745925304272d0     0.503173789480959d0
Ti1      0.001956786217639d0     0.002609798848401d0     0.495900921795066d0
Ti1      0.502951572794579d0     0.752776655994661d0     0.498334003373401d0
O1       0.004464370945486d0     0.499909394955526d0     0.590105550217259d0
O1       0.501233124839307d0     0.500011121524500d0     0.554128034803245d0
O1       0.698233640246059d0     0.743900054565911d0     0.640600636234259d0
O1       0.309603647104356d0     0.740474524352347d0     0.642068561684719d0
Ti1      0.501368505674650d0     0.999583248691326d0     0.630982432560905d0
Ti1      0.001158578478815d0     0.770546044409837d0     0.631346895398032d0
O1       0.500093721748991d0     0.500084921243389d0     0.186906639369252d0
O1       0.198268504441574d0     0.750236248865719d0     0.238667392858710d0
O1       0.801993766892315d0     0.749987153755059d0     0.238669098461250d0
C1       0.920519231787510d0     0.496530320827434d0     0.757190731031741d0
O1       0.025941635440165d0     0.498533039180107d0     0.710819536472192d0
H1       0.761472692918356d0     0.480177797840772d0     0.742874029173441d0
H1       0.171059467671767d0     0.512717698479824d0     0.718111485699084d0
O1       0.498670029485617d0     0.992659109698070d0     0.727395622034670d0
H1       0.616403551497276d0     0.996338058013435d0     0.750469355798771d0
H1       0.376718994302857d0     0.004395235424873d0     0.748758461878698d0
K_POINTS automatic
4 4 1  0 0 0 
