&CONTROL
  calculation='relax',
  prefix='calc',
  pseudo_dir='/storage/coda1/p-amedford6/0/shared/rich_project_chbe-medford/medford-share/data/pseudos_module/espresso/nninc/pbe/van',
  outdir='.',
  tefield=.true.,
  dipfield=.true.,
  tprnfor=.true.,
  disk_io='none',
/
&SYSTEM
  ibrav=0,
  celldm(1)=1.8897261245650618d0,
  nat=51,
  ntyp=5,
  ecutwfc=29.39945797996531d00,
  ecutrho=293.9945797996531d00,
  nbnd=204,
  occupations='smearing',
  smearing='fd',
  degauss=0.007349864494991328d00,
  input_dft='BEEF-vdW',
  edir=3,
  emaxpos=0.9668841336369536d00,
  eopreg=0.025d00,
  eamp=0.0d00,
  nosym=.false.,
  noinv=.false.,
  nosym_evc=.false.,
  no_t_rev=.false.,
/
&ELECTRONS
  diagonalization='david',
  conv_thr=7.349864494991327e-08,
  mixing_beta=0.05d00,
  electron_maxstep=1000,
  startingwfc='atomic',
/
&IONS
  ion_dynamics='ipi',
/
&CELL
  cell_dynamics='ipi',
/
CELL_PARAMETERS alat
    6.579727202290808d0     0.000000000000000d0     0.000000000000000d0
   -0.000775132442404d0     5.961596420607155d0     0.000000000000000d0
    0.000000000000000d0    -0.000000000000000d0    25.155947251439940d0
ATOMIC_SPECIES
Ti1 47.867d00 Ti.UPF
O1 15.999d00 O.UPF
N1 14.007d00 N.UPF
C1 12.011d00 C.UPF
H1 1.008d00 H.UPF
ATOMIC_POSITIONS {crystal}
Ti1      0.000123603383822d0     0.499897385958536d0     0.238512187198856d0
Ti1      0.500142521004230d0     0.250038178055688d0     0.238522014307695d0
O1       0.000095322930372d0     0.000084774873452d0     0.317452257936818d0
O1       0.500112315057126d0     0.000084209992886d0     0.290342007718641d0
O1       0.698270105622955d0     0.250236102495782d0     0.369213011426276d0
O1       0.301995368073695d0     0.249987007385122d0     0.369214717028816d0
Ti1      0.500198167309398d0     0.485761668506182d0     0.364758343030283d0
Ti1      0.000261424674789d0     0.248709163236136d0     0.368424970923767d0
O1       0.500297464850447d0     0.993514833563160d0     0.451026489985713d0
O1       0.001882992193933d0     0.999479849154423d0     0.422099495650131d0
O1       0.198809654826198d0     0.244758155667682d0     0.502682715051219d0
O1       0.805661019477992d0     0.245069062942785d0     0.502227960826515d0
Ti1      0.997266382588456d0     0.492876492215711d0     0.502804519878293d0
Ti1      0.499375973030185d0     0.243568040942522d0     0.496671532669445d0
O1       0.001768545236836d0     0.998126639785292d0     0.582974723150642d0
O1       0.505776092714714d0     0.993821964822399d0     0.554696794661191d0
O1       0.692181627934328d0     0.242368075458646d0     0.641646039897470d0
O1       0.314150644611359d0     0.243208446764421d0     0.640910967991735d0
Ti1      0.504589109386660d0     0.490391268251886d0     0.624846578241436d0
Ti1      0.009164475818611d0     0.226471406819133d0     0.645243583176227d0
O1       0.500093721748991d0     0.000084921243389d0     0.186906639369252d0
O1       0.003108100232096d0     0.976537846851785d0     0.683802562252491d0
O1       0.198268504441574d0     0.250236248865719d0     0.238667392858710d0
O1       0.801993766892314d0     0.249987153755059d0     0.238669098461250d0
Ti1      0.000123603383822d0     0.999897385958536d0     0.238512187198856d0
Ti1      0.500142521004230d0     0.750038178055688d0     0.238522014307695d0
O1       0.000095322930372d0     0.500084774873452d0     0.317452257936818d0
O1       0.500112315057126d0     0.500084209992886d0     0.290342007718641d0
O1       0.698270105622955d0     0.750236102495782d0     0.369213011426276d0
O1       0.301995368073695d0     0.749987007385122d0     0.369214717028816d0
Ti1      0.500001644927041d0     0.985370751416071d0     0.364779031055315d0
Ti1      0.000183276761494d0     0.748948988039575d0     0.368476322807288d0
O1       0.500391206711508d0     0.495073666708473d0     0.451039821010109d0
O1       0.001460782485842d0     0.499964783615161d0     0.422656139091726d0
O1       0.199193579631057d0     0.745138757704926d0     0.503250113015839d0
O1       0.805471954422227d0     0.744470842546154d0     0.502732174399399d0
Ti1      0.002300702768184d0     0.995356437264013d0     0.497708237862456d0
Ti1      0.499358224573972d0     0.743098413783896d0     0.497432607397888d0
O1       0.002083828923684d0     0.491316268902630d0     0.586819638976400d0
O1       0.503628220908648d0     0.492175841901202d0     0.553524558829261d0
O1       0.692626419261134d0     0.738170407354967d0     0.640045019530697d0
O1       0.313520548277634d0     0.739566273898630d0     0.638733699872503d0
Ti1      0.508282243347106d0     0.993017400547375d0     0.626240507063183d0
Ti1      0.007200899127808d0     0.759731978963206d0     0.627110688835023d0
O1       0.500093721748991d0     0.500084921243389d0     0.186906639369252d0
O1       0.198268504441574d0     0.750236248865719d0     0.238667392858710d0
O1       0.801993766892315d0     0.749987153755059d0     0.238669098461250d0
N1       0.973163957357838d0     0.467068622661314d0     0.708811692818231d0
C1       0.103717235035315d0     0.447925300345690d0     0.746861627904655d0
H1       0.241346861996897d0     0.351923316737134d0     0.736582551131694d0
H1       0.844364460749911d0     0.549371246367714d0     0.719046793444570d0
K_POINTS automatic
4 4 1  0 0 0 
