&CONTROL
  calculation='relax',
  prefix='calc',
  pseudo_dir='/storage/coda1/p-amedford6/0/shared/rich_project_chbe-medford/medford-share/data/pseudos_module/espresso/nninc/pbe/van',
  outdir='.',
  tefield=.true.,
  dipfield=.true.,
  tprnfor=.true.,
  disk_io='none',
/
&SYSTEM
  ibrav=0,
  celldm(1)=1.8897261245650618d0,
  nat=49,
  ntyp=3,
  ecutwfc=29.39945797996531d00,
  ecutrho=293.9945797996531d00,
  nbnd=204,
  occupations='smearing',
  smearing='fd',
  degauss=0.007349864494991328d00,
  input_dft='BEEF-vdW',
  edir=3,
  emaxpos=0.9822428391845157d00,
  eopreg=0.025d00,
  eamp=0.0d00,
  nosym=.false.,
  noinv=.false.,
  nosym_evc=.false.,
  no_t_rev=.false.,
/
&ELECTRONS
  diagonalization='david',
  conv_thr=7.349864494991327e-08,
  mixing_beta=0.05d00,
  electron_maxstep=1000,
  startingpot='file',
  startingwfc='atomic',
/
&IONS
  ion_dynamics='ipi',
/
&CELL
  cell_dynamics='ipi',
/
CELL_PARAMETERS alat
    6.579727202290808d0     0.000000000000000d0     0.000000000000000d0
   -0.000775132442404d0     5.961596420607155d0     0.000000000000000d0
    0.000000000000000d0    -0.000000000000000d0    25.155947251439937d0
ATOMIC_SPECIES
Ti1 47.867d00 Ti.UPF
O1 15.999d00 O.UPF
N1 14.007d00 N.UPF
ATOMIC_POSITIONS {crystal}
Ti1      0.000123603383822d0     0.499897385958537d0     0.238512187198856d0
Ti1      0.500142521004230d0     0.250038178055688d0     0.238522014307695d0
O1       0.000095322930372d0     0.000084774873452d0     0.317452257936818d0
O1       0.500112315057126d0     0.000084209992886d0     0.290342007718641d0
O1       0.698270105622955d0     0.250236102495782d0     0.369213011426276d0
O1       0.301995368073694d0     0.249987007385122d0     0.369214717028816d0
Ti1      0.500202896212153d0     0.499375771292662d0     0.363962070191164d0
Ti1      0.000253519309778d0     0.249925018680194d0     0.368003527985502d0
O1       0.499863410648311d0     0.998324536024969d0     0.452956117007552d0
O1       0.000069669215830d0     0.999460826243375d0     0.421758324842614d0
O1       0.195368680766327d0     0.249019264545533d0     0.503667574770554d0
O1       0.804612930844356d0     0.248980871351124d0     0.503604713749030d0
Ti1      0.999917094065258d0     0.497629506825296d0     0.496921572984970d0
Ti1      0.499562306399654d0     0.248438974869141d0     0.498413405278711d0
O1       0.999922627948319d0     0.998985211069678d0     0.583881948030074d0
O1       0.500150674170520d0     0.997900512554221d0     0.557294218428030d0
O1       0.692320270289741d0     0.250109854013093d0     0.643605638396022d0
O1       0.308055234019022d0     0.250131657073836d0     0.643527174852358d0
Ti1      0.500397640815800d0     0.497058269680089d0     0.627222519386528d0
Ti1      0.000219765987086d0     0.225395023831627d0     0.633986666126592d0
O1       0.500093721748991d0     0.000084921243389d0     0.186906639369252d0
O1       0.000271779523929d0     0.996986191186354d0     0.684561159684160d0
O1       0.198268504441573d0     0.250236248865719d0     0.238667392858710d0
O1       0.801993766892314d0     0.249987153755059d0     0.238669098461250d0
Ti1      0.000123603383822d0     0.999897385958537d0     0.238512187198856d0
Ti1      0.500142521004230d0     0.750038178055688d0     0.238522014307695d0
O1       0.000095322930372d0     0.500084774873452d0     0.317452257936818d0
O1       0.500112315057126d0     0.500084209992886d0     0.290342007718641d0
O1       0.698270105622955d0     0.750236102495782d0     0.369213011426276d0
O1       0.301995368073694d0     0.749987007385122d0     0.369214717028816d0
Ti1      0.500200389204060d0     0.999344572389358d0     0.363902594456809d0
Ti1      0.000251436435525d0     0.749613029092881d0     0.368012369310770d0
O1       0.499858213340960d0     0.498552970316093d0     0.452699864076344d0
O1       0.000121826878261d0     0.499525673394609d0     0.422543678775292d0
O1       0.195334035872260d0     0.747675236539585d0     0.503767585797621d0
O1       0.804623457954347d0     0.747657044020894d0     0.503707111152279d0
Ti1      0.999498280031074d0     0.997671818037262d0     0.496037286985568d0
Ti1      0.499587637845538d0     0.748060607644142d0     0.498488001572842d0
O1       0.999925639733273d0     0.497635391399052d0     0.595845189495392d0
O1       0.500135705707051d0     0.497745056867379d0     0.555965371666771d0
O1       0.692274089096486d0     0.745249751901368d0     0.643427391949087d0
O1       0.308112140646579d0     0.745255094812376d0     0.643355708275028d0
Ti1      0.500145988378826d0     0.996979404373937d0     0.628860926813162d0
Ti1      0.000203346015181d0     0.771790855932582d0     0.633746555253224d0
O1       0.500093721748991d0     0.500084921243389d0     0.186906639369252d0
O1       0.198268504441573d0     0.750236248865719d0     0.238667392858710d0
O1       0.801993766892314d0     0.749987153755059d0     0.238669098461250d0
N1       0.018280872785620d0     0.489588195270177d0     0.777579038999779d0
N1       0.007482876948155d0     0.492394866395256d0     0.733787369969856d0
K_POINTS automatic
4 4 1  0 0 0 
