&CONTROL
  calculation='relax',
  prefix='calc',
  pseudo_dir='/storage/coda1/p-amedford6/0/shared/rich_project_chbe-medford/medford-share/data/pseudos_module/espresso/nninc/pbe/van',
  outdir='.',
  tefield=.true.,
  dipfield=.true.,
  tprnfor=.true.,
  disk_io='none',
/
&SYSTEM
  ibrav=0,
  celldm(1)=1.8897261245650618d0,
  nat=59,
  ntyp=5,
  ecutwfc=29.39945797996531d00,
  ecutrho=293.9945797996531d00,
  nbnd=213,
  occupations='smearing',
  smearing='fd',
  degauss=0.007349864494991328d00,
  input_dft='BEEF-vdW',
  edir=3,
  emaxpos=0.006520755884771523d00,
  eopreg=0.025d00,
  eamp=0.0d00,
  nosym=.false.,
  noinv=.false.,
  nosym_evc=.false.,
  no_t_rev=.false.,
/
&ELECTRONS
  diagonalization='david',
  conv_thr=7.349864494991327e-08,
  mixing_beta=0.05d00,
  electron_maxstep=1000,
  startingpot='file',
  startingwfc='atomic',
/
&IONS
  ion_dynamics='ipi',
/
&CELL
  cell_dynamics='ipi',
/
CELL_PARAMETERS alat
    6.579727202290808d0     0.000000000000000d0     0.000000000000000d0
   -0.000775132442404d0     5.961596420607155d0     0.000000000000000d0
    0.000000000000000d0    -0.000000000000000d0    25.155947251439940d0
ATOMIC_SPECIES
Ti1 47.867d00 Ti.UPF
O1 15.999d00 O.UPF
N1 14.007d00 N.UPF
C1 12.011d00 C.UPF
H1 1.008d00 H.UPF
ATOMIC_POSITIONS {crystal}
Ti1      0.000123603383822d0     0.499897385958536d0     0.238512187198856d0
Ti1      0.500142521004230d0     0.250038178055688d0     0.238522014307695d0
O1       0.000095322930372d0     0.000084774873452d0     0.317452257936818d0
O1       0.500112315057126d0     0.000084209992886d0     0.290342007718641d0
O1       0.698270105622955d0     0.250236102495782d0     0.369213011426276d0
O1       0.301995368073695d0     0.249987007385122d0     0.369214717028816d0
Ti1      0.500198167309398d0     0.485761668506182d0     0.364758343030283d0
Ti1      0.000261424674789d0     0.248709163236136d0     0.368424970923767d0
O1       0.498632927955824d0     0.996827452327553d0     0.452411292306907d0
O1       0.001882992193933d0     0.999479849154423d0     0.422099495650131d0
O1       0.194533157134745d0     0.250129742419258d0     0.503357926965606d0
O1       0.802869627957787d0     0.249463355934328d0     0.502516624432171d0
Ti1      0.000688709592141d0     0.498527458174024d0     0.497375234282485d0
Ti1      0.503022707252636d0     0.246566806219883d0     0.498123593115035d0
O1       0.994521365091419d0     0.011707727278083d0     0.583817476655039d0
O1       0.498803514468990d0     0.999685360178990d0     0.557722630056317d0
O1       0.685919055535772d0     0.252392831467963d0     0.645418470361319d0
O1       0.299561717844276d0     0.251826112948825d0     0.642675471583905d0
Ti1      0.496359568190277d0     0.494514509243333d0     0.625424693610785d0
Ti1      0.998164886909712d0     0.243184124344365d0     0.635784014803604d0
O1       0.500093721748991d0     0.000084921243389d0     0.186906639369252d0
O1       0.991310335775151d0     0.978325109582904d0     0.685543512855442d0
O1       0.198268504441574d0     0.250236248865719d0     0.238667392858710d0
O1       0.801993766892314d0     0.249987153755059d0     0.238669098461250d0
Ti1      0.000123603383822d0     0.999897385958536d0     0.238512187198856d0
Ti1      0.500142521004230d0     0.750038178055688d0     0.238522014307695d0
O1       0.000095322930372d0     0.500084774873452d0     0.317452257936818d0
O1       0.500112315057126d0     0.500084209992886d0     0.290342007718641d0
O1       0.698270105622955d0     0.750236102495782d0     0.369213011426276d0
O1       0.301995368073695d0     0.749987007385122d0     0.369214717028816d0
Ti1      0.500001644927041d0     0.985370751416071d0     0.364779031055315d0
Ti1      0.000183276761494d0     0.748948988039575d0     0.368476322807288d0
O1       0.499023090992747d0     0.499021302979860d0     0.452165744221373d0
O1       0.001460782485842d0     0.499964783615161d0     0.422656139091726d0
O1       0.194029439830614d0     0.748338094999959d0     0.504636211438569d0
O1       0.803258401695463d0     0.748921163258830d0     0.503827307070833d0
Ti1      0.002757100857129d0     0.999594250803997d0     0.496781818216653d0
Ti1      0.502696966243891d0     0.747606857971048d0     0.498408848672435d0
O1       0.990829769835121d0     0.492733466367393d0     0.593182057158959d0
O1       0.500230183405583d0     0.495165449588370d0     0.554533389153818d0
O1       0.686229867147153d0     0.740561573745016d0     0.641837447299014d0
O1       0.299008776506752d0     0.738856631235005d0     0.640469630243299d0
Ti1      0.492939974803990d0     0.993333145443855d0     0.630228629896807d0
Ti1      0.993107964627894d0     0.780252024549486d0     0.630873782861509d0
O1       0.500093721748991d0     0.500084921243389d0     0.186906639369252d0
O1       0.198268504441574d0     0.750236248865719d0     0.238667392858710d0
O1       0.801993766892315d0     0.749987153755059d0     0.238669098461250d0
N1       0.164235473419009d0     0.513162550172605d0     0.749078320633688d0
N1       0.986800528800505d0     0.442284962091565d0     0.720132038774283d0
C1       0.110561721233402d0     0.625028580433354d0     0.798953637641001d0
H1       0.005326495759000d0     0.766103942671067d0     0.793028024462494d0
H1       0.041382174814181d0     0.504584857692867d0     0.826134872400290d0
H1       0.249701642889910d0     0.689202129895474d0     0.816846362434328d0
H1       0.868680749069933d0     0.555174648419337d0     0.724576652698997d0
H1       0.939115993670177d0     0.294401375721695d0     0.736480209209928d0
H1       0.235316726947679d0     0.625786635858415d0     0.724961890526364d0
O1       0.481198843365960d0     0.000458709902141d0     0.731188991659112d0
H1       0.618602185210576d0     0.058192600041143d0     0.734209577798012d0
H1       0.392099000829461d0     0.129868510656226d0     0.735587926588019d0
K_POINTS automatic
4 4 1  0 0 0 
