&CONTROL
  calculation='relax',
  prefix='calc',
  pseudo_dir='/storage/coda1/p-amedford6/0/shared/rich_project_chbe-medford/medford-share/data/pseudos_module/espresso/nninc/pbe/van',
  outdir='.',
  tefield=.true.,
  dipfield=.true.,
  tprnfor=.true.,
  disk_io='none',
/
&SYSTEM
  ibrav=0,
  celldm(1)=1.8897261245650618d0,
  nat=50,
  ntyp=4,
  ecutwfc=29.39945797996531d00,
  ecutrho=293.9945797996531d00,
  nbnd=202,
  occupations='smearing',
  smearing='fd',
  degauss=0.007349864494991328d00,
  input_dft='BEEF-vdW',
  edir=3,
  emaxpos=0.9563120269768085d00,
  eopreg=0.025d00,
  eamp=0.0d00,
  nosym=.false.,
  noinv=.false.,
  nosym_evc=.false.,
  no_t_rev=.false.,
/
&ELECTRONS
  diagonalization='david',
  conv_thr=7.349864494991327e-08,
  mixing_beta=0.05d00,
  electron_maxstep=1000,
  startingwfc='atomic',
/
&IONS
  ion_dynamics='ipi',
/
&CELL
  cell_dynamics='ipi',
/
CELL_PARAMETERS alat
    6.579727202290808d0     0.000000000000000d0     0.000000000000000d0
   -0.000775132442404d0     5.961596420607155d0     0.000000000000000d0
    0.000000000000000d0    -0.000000000000000d0    25.155947251439940d0
ATOMIC_SPECIES
Ti1 47.867d00 Ti.UPF
O1 15.999d00 O.UPF
C1 12.011d00 C.UPF
H1 1.008d00 H.UPF
ATOMIC_POSITIONS {crystal}
Ti1      0.000123603383822d0     0.499897385958537d0     0.238512187198856d0
Ti1      0.500142521004230d0     0.250038178055688d0     0.238522014307695d0
O1       0.000095322930372d0     0.000084774873452d0     0.317452257936818d0
O1       0.500112315057126d0     0.000084209992886d0     0.290342007718641d0
O1       0.698270105622955d0     0.250236102495782d0     0.369213011426276d0
O1       0.301995368073695d0     0.249987007385122d0     0.369214717028816d0
Ti1      0.498286006021389d0     0.480666088449054d0     0.364216132918859d0
Ti1      0.998530352226666d0     0.246125332317482d0     0.373121093360316d0
O1       0.496263231526343d0     0.001829547004308d0     0.451388983587042d0
O1       0.999915299457990d0     0.998722163970221d0     0.419728072609621d0
O1       0.190794756427280d0     0.252356555158882d0     0.503387196543651d0
O1       0.796713503320824d0     0.251417025461012d0     0.501813946759340d0
Ti1      0.007262399986033d0     0.499460531208635d0     0.511171919257611d0
Ti1      0.513250776166954d0     0.250790417921466d0     0.496867479399327d0
O1       0.992008970412031d0     0.990473684522752d0     0.580381876599855d0
O1       0.496411232778527d0     0.003293892836678d0     0.554668214890301d0
O1       0.681912345493995d0     0.257991615479704d0     0.640921237964425d0
O1       0.304313797033558d0     0.258164270285039d0     0.640021084057978d0
Ti1      0.493737091735902d0     0.506903032566226d0     0.625445822216933d0
Ti1      0.997531049815661d0     0.270276261185781d0     0.644534587462221d0
O1       0.500093721748991d0     0.000084921243389d0     0.186906639369252d0
O1       0.994645833187252d0     0.006775266046024d0     0.685742819577806d0
O1       0.198268504441574d0     0.250236248865719d0     0.238667392858710d0
O1       0.801993766892314d0     0.249987153755059d0     0.238669098461250d0
Ti1      0.000123603383822d0     0.999897385958537d0     0.238512187198856d0
Ti1      0.500142521004230d0     0.750038178055688d0     0.238522014307695d0
O1       0.000095322930372d0     0.500084774873452d0     0.317452257936818d0
O1       0.500112315057126d0     0.500084209992886d0     0.290342007718641d0
O1       0.698270105622955d0     0.750236102495782d0     0.369213011426276d0
O1       0.301995368073695d0     0.749987007385122d0     0.369214717028816d0
Ti1      0.499203793271063d0     0.981094474334052d0     0.364186478400173d0
Ti1      0.998767915639892d0     0.745422664297105d0     0.372480486537336d0
O1       0.495641708907471d0     0.500182030209033d0     0.451151597331576d0
O1       0.999611013017640d0     0.499117560340585d0     0.419624523080677d0
O1       0.191229028014936d0     0.746323195786651d0     0.502472934573059d0
O1       0.796007121295861d0     0.747008466116851d0     0.501072895892845d0
Ti1      0.007156565123375d0     0.999496559035259d0     0.508701144237268d0
Ti1      0.512952264652830d0     0.750445895019301d0     0.496373329765343d0
O1       0.993086456386859d0     0.498159569825325d0     0.584523093155549d0
O1       0.495904471313100d0     0.504151676648208d0     0.554088390571554d0
O1       0.681587275211893d0     0.756219134128395d0     0.640594779573992d0
O1       0.305221929556135d0     0.756038450202433d0     0.640053729546777d0
Ti1      0.497643449728640d0     0.007542841940434d0     0.626252537793292d0
Ti1      0.995694907726412d0     0.774157355572638d0     0.642369947322121d0
O1       0.500093721748991d0     0.500084921243389d0     0.186906639369252d0
O1       0.198268504441574d0     0.750236248865719d0     0.238667392858710d0
O1       0.801993766892315d0     0.749987153755059d0     0.238669098461250d0
C1       0.993283206362393d0     0.505936656461036d0     0.700062423008903d0
H1       0.124619877718066d0     0.537854231301614d0     0.725717414584365d0
H1       0.852128988847813d0     0.508699309359195d0     0.723051090320246d0
K_POINTS automatic
4 4 1  0 0 0 
