&CONTROL
  calculation='relax',
  prefix='calc',
  pseudo_dir='/storage/coda1/p-amedford6/0/shared/rich_project_chbe-medford/medford-share/data/pseudos_module/espresso/nninc/pbe/van',
  outdir='.',
  tefield=.true.,
  dipfield=.true.,
  tprnfor=.true.,
  disk_io='none',
/
&SYSTEM
  ibrav=0,
  celldm(1)=1.8897261245650618d0,
  nat=52,
  ntyp=4,
  ecutwfc=29.39945797996531d00,
  ecutrho=293.9945797996531d00,
  nbnd=205,
  occupations='smearing',
  smearing='fd',
  degauss=0.007349864494991328d00,
  input_dft='BEEF-vdW',
  edir=3,
  emaxpos=0.9664281530846963d00,
  eopreg=0.025d00,
  eamp=0.0d00,
  nosym=.false.,
  noinv=.false.,
  nosym_evc=.false.,
  no_t_rev=.false.,
/
&ELECTRONS
  diagonalization='david',
  conv_thr=7.349864494991327e-08,
  mixing_beta=0.05d00,
  electron_maxstep=1000,
  startingwfc='atomic',
/
&IONS
  ion_dynamics='ipi',
/
&CELL
  cell_dynamics='ipi',
/
CELL_PARAMETERS alat
    6.579727202290808d0     0.000000000000000d0     0.000000000000000d0
   -0.000775132442404d0     5.961596420607155d0     0.000000000000000d0
    0.000000000000000d0    -0.000000000000000d0    25.155947251439940d0
ATOMIC_SPECIES
Ti1 47.867d00 Ti.UPF
O1 15.999d00 O.UPF
H1 1.008d00 H.UPF
N1 14.007d00 N.UPF
ATOMIC_POSITIONS {crystal}
Ti1      0.000123603383822d0     0.499897385958536d0     0.238512187198856d0
Ti1      0.500142521004230d0     0.250038178055688d0     0.238522014307695d0
O1       0.000095322930372d0     0.000084774873452d0     0.317452257936818d0
O1       0.500112315057126d0     0.000084209992886d0     0.290342007718641d0
O1       0.698270105622955d0     0.250236102495782d0     0.369213011426276d0
O1       0.301995368073695d0     0.249987007385122d0     0.369214717028816d0
Ti1      0.500201354236192d0     0.486643207315874d0     0.364989392022340d0
Ti1      0.000252156776383d0     0.235846522712712d0     0.369571347979654d0
O1       0.499144968736406d0     0.998670722727446d0     0.450897951080401d0
O1       0.999989174629697d0     0.998366153281536d0     0.421704177410013d0
O1       0.195941185822030d0     0.248064320316678d0     0.502913082847249d0
O1       0.802016309163184d0     0.248670744935920d0     0.502527198838016d0
Ti1      0.997617943740200d0     0.496503447393487d0     0.508457635876558d0
Ti1      0.498231387898304d0     0.247737322601255d0     0.496680507754056d0
O1       0.995792596318378d0     0.996880851198588d0     0.583150781517512d0
O1       0.499606199141427d0     0.997487523913797d0     0.554687471145157d0
O1       0.687811120260768d0     0.250364729593326d0     0.640706056503445d0
O1       0.307325768369450d0     0.249215515970299d0     0.640273405942670d0
Ti1      0.497772394093021d0     0.497158906768249d0     0.624707438934707d0
Ti1      0.002039351974415d0     0.228729219024669d0     0.638459262017333d0
O1       0.500093721748991d0     0.000084921243389d0     0.186906639369252d0
O1       0.001334399778966d0     0.997447874874762d0     0.684662487346444d0
O1       0.198268504441574d0     0.250236248865719d0     0.238667392858710d0
O1       0.801993766892314d0     0.249987153755059d0     0.238669098461250d0
Ti1      0.000123603383822d0     0.999897385958536d0     0.238512187198856d0
Ti1      0.500142521004230d0     0.750038178055688d0     0.238522014307695d0
O1       0.000095322930372d0     0.500084774873452d0     0.317452257936818d0
O1       0.500112315057126d0     0.500084209992886d0     0.290342007718641d0
O1       0.698270105622955d0     0.750236102495782d0     0.369213011426276d0
O1       0.301995368073695d0     0.749987007385122d0     0.369214717028816d0
Ti1      0.500150434037856d0     0.986805168049162d0     0.364425208550987d0
Ti1      0.000244040671429d0     0.729592170780947d0     0.372273377436489d0
O1       0.498826915450081d0     0.497697638802818d0     0.450754382757316d0
O1       0.000283732265862d0     0.497449754558491d0     0.420730787006705d0
O1       0.196212670492147d0     0.748396617943487d0     0.502429742215134d0
O1       0.801849963457204d0     0.747694855370319d0     0.502100433883962d0
Ti1      0.999005679701610d0     0.996757494691267d0     0.500329641941945d0
Ti1      0.498318987528629d0     0.747605789648198d0     0.496321094230946d0
O1       0.997993550429804d0     0.500615829576514d0     0.584101886431217d0
O1       0.498929452231463d0     0.498422697908444d0     0.553548556055708d0
O1       0.687816214646788d0     0.744253390174524d0     0.640747011749940d0
O1       0.306841723100001d0     0.744835815443832d0     0.640779734378279d0
Ti1      0.501464715073519d0     0.997736750453494d0     0.625901818585409d0
Ti1      0.000411954208117d0     0.755830368034352d0     0.636260109700177d0
O1       0.500093721748991d0     0.500084921243389d0     0.186906639369252d0
O1       0.198268504441574d0     0.750236248865719d0     0.238667392858710d0
O1       0.801993766892315d0     0.749987153755059d0     0.238669098461250d0
H1       0.848286678407934d0     0.501673289750787d0     0.711213472075511d0
N1       0.991313556093439d0     0.499716921182391d0     0.695538177742135d0
N1       0.125442481957193d0     0.499708214765537d0     0.740193894575043d0
H1       0.182773888413351d0     0.342241203631183d0     0.745949666800140d0
H1       0.243572953777603d0     0.605746541378040d0     0.732883469767328d0
K_POINTS automatic
4 4 1  0 0 0 
