&CONTROL
  calculation='relax',
  prefix='calc',
  pseudo_dir='/storage/coda1/p-amedford6/0/shared/rich_project_chbe-medford/medford-share/data/pseudos_module/espresso/nninc/pbe/van',
  outdir='.',
  tefield=.true.,
  dipfield=.true.,
  tprnfor=.true.,
  disk_io='none',
/
&SYSTEM
  ibrav=0,
  celldm(1)=1.8897261245650618d0,
  nat=55,
  ntyp=5,
  ecutwfc=29.39945797996531d00,
  ecutrho=293.9945797996531d00,
  nbnd=206,
  occupations='smearing',
  smearing='fd',
  degauss=0.007349864494991328d00,
  nspin=2,
  starting_magnetization(1)=0.0d00,
  starting_magnetization(2)=0.0d00,
  starting_magnetization(3)=0.12d00,
  starting_magnetization(4)=0.15d00,
  starting_magnetization(5)=0.0d00,
  input_dft='BEEF-vdW',
  edir=3,
  emaxpos=0.002737754601220832d00,
  eopreg=0.025d00,
  eamp=0.0d00,
  nosym=.false.,
  noinv=.false.,
  nosym_evc=.false.,
  no_t_rev=.false.,
/
&ELECTRONS
  diagonalization='david',
  conv_thr=7.349864494991327e-08,
  mixing_beta=0.05d00,
  electron_maxstep=1000,
  startingwfc='atomic',
/
&IONS
  ion_dynamics='ipi',
/
&CELL
  cell_dynamics='ipi',
/
CELL_PARAMETERS alat
    6.579727202290808d0     0.000000000000000d0     0.000000000000000d0
   -0.000775132442404d0     5.961596420607155d0     0.000000000000000d0
    0.000000000000000d0    -0.000000000000000d0    25.155947251439940d0
ATOMIC_SPECIES
Ti1 47.867d00 Ti.UPF
O1 15.999d00 O.UPF
N1 14.007d00 N.UPF
C1 12.011d00 C.UPF
H1 1.008d00 H.UPF
ATOMIC_POSITIONS {crystal}
Ti1      0.000123603383822d0     0.499897385958536d0     0.238512187198856d0
Ti1      0.500142521004230d0     0.250038178055688d0     0.238522014307695d0
O1       0.000095322930372d0     0.000084774873452d0     0.317452257936818d0
O1       0.500112315057126d0     0.000084209992886d0     0.290342007718641d0
O1       0.698270105622955d0     0.250236102495782d0     0.369213011426276d0
O1       0.301995368073695d0     0.249987007385122d0     0.369214717028816d0
Ti1      0.500198167309398d0     0.485761668506182d0     0.364758343030283d0
Ti1      0.000261424674789d0     0.248709163236136d0     0.368424970923767d0
O1       0.496270018233814d0     0.996579408437894d0     0.453324274865696d0
O1       0.001882992193933d0     0.999479849154423d0     0.422099495650131d0
O1       0.192222569539956d0     0.249116540793522d0     0.504445939704119d0
O1       0.801205167019133d0     0.248763836318494d0     0.503246909524957d0
Ti1      0.996660650817841d0     0.497307555413047d0     0.496730819179252d0
Ti1      0.496240931179797d0     0.246724547930410d0     0.499016160956066d0
O1       0.991728951532487d0     0.999531512044508d0     0.583701380326938d0
O1       0.497508812647089d0     0.997347889768204d0     0.558163656968424d0
O1       0.687185535732015d0     0.247320567017179d0     0.647696801386243d0
O1       0.295381927763869d0     0.248232478433038d0     0.645627168398939d0
Ti1      0.494096356449880d0     0.493518089496704d0     0.628320764400572d0
Ti1      0.993379115149055d0     0.225041923209791d0     0.634455007009709d0
O1       0.500093721748991d0     0.000084921243389d0     0.186906639369252d0
O1       0.992955109583002d0     0.987993217838330d0     0.692868360749058d0
O1       0.198268504441574d0     0.250236248865719d0     0.238667392858710d0
O1       0.801993766892314d0     0.249987153755059d0     0.238669098461250d0
Ti1      0.000123603383822d0     0.999897385958536d0     0.238512187198856d0
Ti1      0.500142521004230d0     0.750038178055688d0     0.238522014307695d0
O1       0.000095322930372d0     0.500084774873452d0     0.317452257936818d0
O1       0.500112315057126d0     0.500084209992886d0     0.290342007718641d0
O1       0.698270105622955d0     0.750236102495782d0     0.369213011426276d0
O1       0.301995368073695d0     0.749987007385122d0     0.369214717028816d0
Ti1      0.500001644927041d0     0.985370751416071d0     0.364779031055315d0
Ti1      0.000183276761494d0     0.748948988039575d0     0.368476322807288d0
O1       0.496453515837966d0     0.497441832738893d0     0.453040312323707d0
O1       0.001460782485842d0     0.499964783615161d0     0.422656139091726d0
O1       0.192111680149828d0     0.746421008959077d0     0.504949600595439d0
O1       0.801293975527005d0     0.746580161194183d0     0.503724822779450d0
Ti1      0.996622679930767d0     0.997864377772278d0     0.497030634253388d0
Ti1      0.496356004110384d0     0.746030033165419d0     0.499193276247574d0
O1       0.987963266180923d0     0.492643026450524d0     0.595768355792885d0
O1       0.497689067201274d0     0.495451760364574d0     0.556838033560695d0
O1       0.686870968785131d0     0.741806237625726d0     0.646560885499639d0
O1       0.296502981757527d0     0.741615697057210d0     0.644577668789261d0
Ti1      0.493104850754902d0     0.995624219725630d0     0.629838984868563d0
Ti1      0.996392401995796d0     0.763695262214643d0     0.631556791922882d0
O1       0.500093721748991d0     0.500084921243389d0     0.186906639369252d0
O1       0.198268504441574d0     0.750236248865719d0     0.238667392858710d0
O1       0.801993766892315d0     0.749987153755059d0     0.238669098461250d0
N1       0.738881134560757d0     0.769504112465447d0     0.773959273745098d0
C1       0.868807503881828d0     0.576382770389087d0     0.787058813241700d0
H1       0.960099043742074d0     0.531887299645227d0     0.752419081171443d0
H1       0.974156406134902d0     0.623898687615712d0     0.818568869833189d0
H1       0.785827342568208d0     0.425838069775408d0     0.799463313987138d0
H1       0.898293100502411d0     0.962807283924399d0     0.722382862288100d0
H1       0.639163920250146d0     0.727444294408167d0     0.744814286018102d0
H1       0.655673510636355d0     0.815931438513411d0     0.806025146967434d0
K_POINTS automatic
4 4 1  0 0 0 
