&CONTROL
  calculation='relax',
  prefix='calc',
  pseudo_dir='/storage/coda1/p-amedford6/0/shared/rich_project_chbe-medford/medford-share/data/pseudos_module/espresso/nninc/pbe/van',
  outdir='.',
  tefield=.true.,
  dipfield=.true.,
  tprnfor=.true.,
  disk_io='none',
/
&SYSTEM
  ibrav=0,
  celldm(1)=1.8897261245650618d0,
  nat=53,
  ntyp=5,
  ecutwfc=29.39945797996531d00,
  ecutrho=293.9945797996531d00,
  nbnd=205,
  occupations='smearing',
  smearing='fd',
  degauss=0.007349864494991328d00,
  input_dft='BEEF-vdW',
  edir=3,
  emaxpos=0.9813331546762931d00,
  eopreg=0.025d00,
  eamp=0.0d00,
  nosym=.false.,
  noinv=.false.,
  nosym_evc=.false.,
  no_t_rev=.false.,
/
&ELECTRONS
  diagonalization='david',
  conv_thr=7.349864494991327e-08,
  mixing_beta=0.05d00,
  electron_maxstep=1000,
  startingpot='file',
  startingwfc='atomic',
/
&IONS
  ion_dynamics='ipi',
/
&CELL
  cell_dynamics='ipi',
/
CELL_PARAMETERS alat
    6.579727202290808d0     0.000000000000000d0     0.000000000000000d0
   -0.000775132442404d0     5.961596420607155d0     0.000000000000000d0
    0.000000000000000d0    -0.000000000000000d0    25.155947251439940d0
ATOMIC_SPECIES
Ti1 47.867d00 Ti.UPF
O1 15.999d00 O.UPF
N1 14.007d00 N.UPF
C1 12.011d00 C.UPF
H1 1.008d00 H.UPF
ATOMIC_POSITIONS {crystal}
Ti1      0.000123603383822d0     0.499897385958536d0     0.238512187198856d0
Ti1      0.500142521004230d0     0.250038178055688d0     0.238522014307695d0
O1       0.000095322930372d0     0.000084774873452d0     0.317452257936818d0
O1       0.500112315057126d0     0.000084209992886d0     0.290342007718641d0
O1       0.698270105622955d0     0.250236102495782d0     0.369213011426276d0
O1       0.301995368073695d0     0.249987007385122d0     0.369214717028816d0
Ti1      0.500198167309398d0     0.485761668506182d0     0.364758343030283d0
Ti1      0.000261424674789d0     0.248709163236136d0     0.368424970923767d0
O1       0.500766201044905d0     0.998309394486785d0     0.452537316588913d0
O1       0.001882992193933d0     0.999479849154423d0     0.422099495650131d0
O1       0.196321578695340d0     0.247876572476531d0     0.504722428456932d0
O1       0.805567802406823d0     0.248318345167929d0     0.504031928447429d0
Ti1      0.002518536346028d0     0.496685564243922d0     0.497125148952793d0
Ti1      0.504602836612469d0     0.246416467217436d0     0.498480997747244d0
O1       0.996776129369874d0     0.984031264972738d0     0.584332344052046d0
O1       0.503268147108281d0     0.996046783360373d0     0.556859431359608d0
O1       0.689346203944765d0     0.252919516954246d0     0.643458257410651d0
O1       0.307509476493383d0     0.250311943412710d0     0.641402761153986d0
Ti1      0.498285970994850d0     0.499212372853964d0     0.626943721393922d0
Ti1      0.002487359845708d0     0.214238176332863d0     0.631252629505955d0
O1       0.500093721748991d0     0.000084921243389d0     0.186906639369252d0
O1       0.998257113268366d0     0.019137082636562d0     0.685798522342508d0
O1       0.198268504441574d0     0.250236248865719d0     0.238667392858710d0
O1       0.801993766892314d0     0.249987153755059d0     0.238669098461250d0
Ti1      0.000123603383822d0     0.999897385958536d0     0.238512187198856d0
Ti1      0.500142521004230d0     0.750038178055688d0     0.238522014307695d0
O1       0.000095322930372d0     0.500084774873452d0     0.317452257936818d0
O1       0.500112315057126d0     0.500084209992886d0     0.290342007718641d0
O1       0.698270105622955d0     0.750236102495782d0     0.369213011426276d0
O1       0.301995368073695d0     0.749987007385122d0     0.369214717028816d0
Ti1      0.500001644927041d0     0.985370751416071d0     0.364779031055315d0
Ti1      0.000183276761494d0     0.748948988039575d0     0.368476322807288d0
O1       0.500974242073929d0     0.496301309065613d0     0.452302167906005d0
O1       0.001460782485842d0     0.499964783615161d0     0.422656139091726d0
O1       0.196865373214484d0     0.746179153718411d0     0.503469827873226d0
O1       0.805532557604984d0     0.745881082737330d0     0.502922907014921d0
Ti1      0.004420523520729d0     0.995310301429133d0     0.497142978530917d0
Ti1      0.504884401622112d0     0.746088986370092d0     0.498134744797024d0
O1       0.996901218473670d0     0.503713506591577d0     0.595782422023849d0
O1       0.501768848542608d0     0.499779865058499d0     0.555711021587954d0
O1       0.686375826926676d0     0.747463708572898d0     0.645413480933970d0
O1       0.306901281750462d0     0.747263928326586d0     0.644504352154899d0
Ti1      0.503758893274201d0     0.999004973878133d0     0.628432233856640d0
Ti1      0.006955299262914d0     0.754888415002114d0     0.638116430936851d0
O1       0.500093721748991d0     0.500084921243389d0     0.186906639369252d0
O1       0.198268504441574d0     0.750236248865719d0     0.238667392858710d0
O1       0.801993766892315d0     0.749987153755059d0     0.238669098461250d0
N1       0.942567800005356d0     0.574030925851887d0     0.725573202245117d0
C1       0.104348424588224d0     0.526074709840575d0     0.759208041689477d0
H1       0.186267883349684d0     0.665937316814755d0     0.775759669983334d0
H1       0.167629804521698d0     0.360412596656533d0     0.757202271616815d0
H1       0.866904341486663d0     0.717749191577241d0     0.734466131912492d0
H1       0.842498672786810d0     0.445384431815028d0     0.720643184932623d0
K_POINTS automatic
4 4 1  0 0 0 
