&CONTROL
  calculation='relax',
  prefix='calc',
  pseudo_dir='/storage/coda1/p-amedford6/0/shared/rich_project_chbe-medford/medford-share/data/pseudos_module/espresso/nninc/pbe/van',
  outdir='.',
  tefield=.true.,
  dipfield=.true.,
  tprnfor=.true.,
  disk_io='none',
/
&SYSTEM
  ibrav=0,
  celldm(1)=1.8897261245650618d0,
  nat=54,
  ntyp=5,
  ecutwfc=29.39945797996531d00,
  ecutrho=293.9945797996531d00,
  nbnd=210,
  occupations='smearing',
  smearing='fd',
  degauss=0.007349864494991328d00,
  input_dft='BEEF-vdW',
  edir=3,
  emaxpos=0.03155909534546808d00,
  eopreg=0.025d00,
  eamp=0.0d00,
  nosym=.false.,
  noinv=.false.,
  nosym_evc=.false.,
  no_t_rev=.false.,
/
&ELECTRONS
  diagonalization='david',
  conv_thr=7.349864494991327e-08,
  mixing_beta=0.05d00,
  electron_maxstep=1000,
  startingwfc='atomic',
/
&IONS
  ion_dynamics='ipi',
/
&CELL
  cell_dynamics='ipi',
/
CELL_PARAMETERS alat
    6.579727202290808d0     0.000000000000000d0     0.000000000000000d0
   -0.000775132442404d0     5.961596420607155d0     0.000000000000000d0
    0.000000000000000d0    -0.000000000000000d0    25.155947251439940d0
ATOMIC_SPECIES
C1 12.011d00 C.UPF
H1 1.008d00 H.UPF
O1 15.999d00 O.UPF
Ti1 47.867d00 Ti.UPF
N1 14.007d00 N.UPF
ATOMIC_POSITIONS {crystal}
C1       0.801097397491051d0     0.246058082330529d0     0.789449159322009d0
H1       0.663584512379548d0     0.237756904240086d0     0.765992491595659d0
H1       0.955955982448086d0     0.477012194979766d0     0.725104858988747d0
H1       0.928041392152208d0     0.136026787237207d0     0.781980553113520d0
O1       0.000095322930372d0     0.000084774873452d0     0.317452257936818d0
O1       0.500112315057126d0     0.000084209992886d0     0.290342007718641d0
O1       0.698270105622955d0     0.250236102495782d0     0.369213011426276d0
O1       0.301995368073695d0     0.249987007385122d0     0.369214717028816d0
O1       0.500457078692951d0     0.997733098424103d0     0.450848315414279d0
O1       0.999927810398331d0     0.999877846178848d0     0.421895320531972d0
O1       0.198166563844425d0     0.247470223331123d0     0.502598949570398d0
O1       0.805716513769895d0     0.247662387097370d0     0.502458438227018d0
O1       0.998980633771820d0     0.997961360543774d0     0.585585035813459d0
O1       0.502590564547889d0     0.997309529931809d0     0.553558699113853d0
O1       0.688911574997819d0     0.248240457544215d0     0.640031923605374d0
O1       0.311032604924918d0     0.248316959343361d0     0.638745389992342d0
O1       0.500093721748991d0     0.000084921243389d0     0.186906639369252d0
O1       0.002193440438798d0     0.001299682496818d0     0.686100059212498d0
O1       0.198268504441574d0     0.250236248865719d0     0.238667392858710d0
O1       0.801993766892314d0     0.249987153755059d0     0.238669098461250d0
O1       0.000095322930372d0     0.500084774873452d0     0.317452257936818d0
O1       0.500112315057126d0     0.500084209992886d0     0.290342007718641d0
O1       0.698270105622955d0     0.750236102495782d0     0.369213011426276d0
O1       0.301995368073695d0     0.749987007385122d0     0.369214717028816d0
O1       0.500121300866926d0     0.498058352200603d0     0.450917478625849d0
O1       0.000805225542670d0     0.500795288713544d0     0.420311314618541d0
O1       0.197531527548288d0     0.747767584795595d0     0.502882093810473d0
O1       0.805850859985378d0     0.747636512755668d0     0.502873665624685d0
O1       0.000354047358213d0     0.492492239317767d0     0.584377349846053d0
O1       0.502097510157573d0     0.497831254397055d0     0.553604691747841d0
O1       0.689397781022503d0     0.748257295906765d0     0.640216009211772d0
O1       0.311078117462161d0     0.748185431927399d0     0.639391284132757d0
O1       0.500093721748991d0     0.500084921243389d0     0.186906639369252d0
O1       0.198268504441574d0     0.750236248865719d0     0.238667392858710d0
O1       0.801993766892315d0     0.749987153755059d0     0.238669098461250d0
O1       0.001366107764767d0     0.496893262277639d0     0.688626018628156d0
Ti1      0.000123603383822d0     0.499897385958537d0     0.238512187198856d0
Ti1      0.500142521004230d0     0.250038178055688d0     0.238522014307695d0
Ti1      0.502977191894485d0     0.508668277218894d0     0.364003563820136d0
Ti1      0.005251344816665d0     0.269097095033395d0     0.372187205610565d0
Ti1      0.995822383765328d0     0.497725546584886d0     0.509278959220209d0
Ti1      0.491722827780678d0     0.247392157691473d0     0.496387897681523d0
Ti1      0.502050310440802d0     0.497872758183437d0     0.624867656928767d0
Ti1      0.004253008184826d0     0.239046074807450d0     0.634143089826686d0
Ti1      0.000123603383822d0     0.999897385958537d0     0.238512187198856d0
Ti1      0.500142521004230d0     0.750038178055688d0     0.238522014307695d0
Ti1      0.505247830114144d0     0.009112419362842d0     0.363893422325943d0
Ti1      0.005249461372074d0     0.759827039590806d0     0.368547147797429d0
Ti1      0.993218151337328d0     0.996672484781396d0     0.498046233938045d0
Ti1      0.491721634132615d0     0.747428096997182d0     0.496241497944081d0
Ti1      0.503285610156337d0     0.997545346224620d0     0.624792132482939d0
Ti1      0.003937357665597d0     0.768767486345671d0     0.642022931969557d0
N1       0.777111501095736d0     0.427232434494034d0     0.876211551321684d0
N1       0.787269031834560d0     0.338423416490474d0     0.836111106133542d0
K_POINTS automatic
4 4 1  0 0 0 
