&CONTROL
  calculation='relax',
  prefix='calc',
  pseudo_dir='/storage/coda1/p-amedford6/0/shared/rich_project_chbe-medford/medford-share/data/pseudos_module/espresso/nninc/pbe/van',
  outdir='.',
  tefield=.true.,
  dipfield=.true.,
  tprnfor=.true.,
  disk_io='none',
/
&SYSTEM
  ibrav=0,
  celldm(1)=1.8897261245650618d0,
  nat=55,
  ntyp=5,
  ecutwfc=29.39945797996531d00,
  ecutrho=293.9945797996531d00,
  nbnd=208,
  occupations='smearing',
  smearing='fd',
  degauss=0.007349864494991328d00,
  input_dft='BEEF-vdW',
  edir=3,
  emaxpos=0.989268792655879d00,
  eopreg=0.025d00,
  eamp=0.0d00,
  nosym=.false.,
  noinv=.false.,
  nosym_evc=.false.,
  no_t_rev=.false.,
/
&ELECTRONS
  diagonalization='david',
  conv_thr=7.349864494991327e-08,
  mixing_beta=0.05d00,
  electron_maxstep=1000,
  startingpot='file',
  startingwfc='atomic',
/
&IONS
  ion_dynamics='ipi',
/
&CELL
  cell_dynamics='ipi',
/
CELL_PARAMETERS alat
    6.579727202290808d0     0.000000000000000d0     0.000000000000000d0
   -0.000775132442404d0     5.961596420607155d0     0.000000000000000d0
    0.000000000000000d0    -0.000000000000000d0    25.155947251439940d0
ATOMIC_SPECIES
Ti1 47.867d00 Ti.UPF
O1 15.999d00 O.UPF
N1 14.007d00 N.UPF
C1 12.011d00 C.UPF
H1 1.008d00 H.UPF
ATOMIC_POSITIONS {crystal}
Ti1      0.000123603383822d0     0.499897385958536d0     0.238512187198856d0
Ti1      0.500142521004230d0     0.250038178055688d0     0.238522014307695d0
O1       0.000095322930372d0     0.000084774873452d0     0.317452257936818d0
O1       0.500112315057126d0     0.000084209992886d0     0.290342007718641d0
O1       0.698270105622955d0     0.250236102495782d0     0.369213011426276d0
O1       0.301995368073695d0     0.249987007385122d0     0.369214717028816d0
Ti1      0.500198167309398d0     0.485761668506182d0     0.364758343030283d0
Ti1      0.000261424674789d0     0.248709163236136d0     0.368424970923767d0
O1       0.498577524998595d0     0.997608221410893d0     0.451591298699950d0
O1       0.001882992193933d0     0.999479849154423d0     0.422099495650131d0
O1       0.196119732857529d0     0.251110885855319d0     0.502807478443435d0
O1       0.802884310399583d0     0.251585452029961d0     0.501689761803386d0
Ti1      0.998688755857083d0     0.498717611436283d0     0.498300745788244d0
Ti1      0.498906477409084d0     0.249122784315094d0     0.496759678504002d0
O1       0.992987868370279d0     0.015338531008677d0     0.583251836634758d0
O1       0.503933677084489d0     0.003032246273770d0     0.556144433626528d0
O1       0.685233403673554d0     0.254907761610850d0     0.646447396971313d0
O1       0.304937845575740d0     0.248509610827750d0     0.643345817292272d0
Ti1      0.490350677371342d0     0.494260833139213d0     0.624947695566223d0
Ti1      0.989287569243118d0     0.236108587679759d0     0.642029491140813d0
O1       0.500093721748991d0     0.000084921243389d0     0.186906639369252d0
O1       0.997577328479508d0     0.974965141136286d0     0.684937559046317d0
O1       0.198268504441574d0     0.250236248865719d0     0.238667392858710d0
O1       0.801993766892314d0     0.249987153755059d0     0.238669098461250d0
Ti1      0.000123603383822d0     0.999897385958536d0     0.238512187198856d0
Ti1      0.500142521004230d0     0.750038178055688d0     0.238522014307695d0
O1       0.000095322930372d0     0.500084774873452d0     0.317452257936818d0
O1       0.500112315057126d0     0.500084209992886d0     0.290342007718641d0
O1       0.698270105622955d0     0.750236102495782d0     0.369213011426276d0
O1       0.301995368073695d0     0.749987007385122d0     0.369214717028816d0
Ti1      0.500001644927041d0     0.985370751416071d0     0.364779031055315d0
Ti1      0.000183276761494d0     0.748948988039575d0     0.368476322807288d0
O1       0.498314106889161d0     0.501187289387098d0     0.451326278223138d0
O1       0.001460782485842d0     0.499964783615161d0     0.422656139091726d0
O1       0.195495670936101d0     0.750290605131938d0     0.504876831970243d0
O1       0.803244921540744d0     0.749597167755529d0     0.503421533812300d0
Ti1      0.999046952700165d0     0.001694958717159d0     0.497393850926591d0
Ti1      0.499382024546595d0     0.748312711815211d0     0.497598312864631d0
O1       0.992194178343430d0     0.494502117693057d0     0.592427310370611d0
O1       0.500936219421595d0     0.496318443897978d0     0.554104229649201d0
O1       0.683898950512268d0     0.740734226836068d0     0.644809183593863d0
O1       0.305646183837756d0     0.748530306487133d0     0.638709598424697d0
Ti1      0.498363649419822d0     0.000972942470050d0     0.627240304370055d0
Ti1      0.009313199643965d0     0.773170972694208d0     0.626311431156286d0
O1       0.500093721748991d0     0.500084921243389d0     0.186906639369252d0
O1       0.198268504441574d0     0.750236248865719d0     0.238667392858710d0
O1       0.801993766892315d0     0.749987153755059d0     0.238669098461250d0
N1       0.006182775889568d0     0.456111717781058d0     0.715643114377977d0
C1       0.142894868038734d0     0.418427056732957d0     0.753953023432584d0
H1       0.137952979466176d0     0.506290925930074d0     0.791630945942505d0
H1       0.259899085474119d0     0.296971384427187d0     0.745808876022460d0
N1       0.847611982461172d0     0.606464719101982d0     0.734683966960989d0
H1       0.910184414153784d0     0.760213334483435d0     0.743950188696899d0
H1       0.750023066737547d0     0.645227454749458d0     0.702064341159080d0
H1       0.770218523673602d0     0.535882925170365d0     0.766289189165567d0
K_POINTS automatic
4 4 1  0 0 0 
