&CONTROL
  calculation='relax',
  prefix='calc',
  pseudo_dir='/storage/coda1/p-amedford6/0/shared/rich_project_chbe-medford/medford-share/data/pseudos_module/espresso/nninc/pbe/van',
  outdir='.',
  tefield=.true.,
  dipfield=.true.,
  tprnfor=.true.,
  disk_io='none',
/
&SYSTEM
  ibrav=0,
  celldm(1)=1.8897261245650618d0,
  nat=49,
  ntyp=3,
  ecutwfc=29.39945797996531d00,
  ecutrho=293.9945797996531d00,
  nbnd=202,
  occupations='smearing',
  smearing='fd',
  degauss=0.007349864494991328d00,
  nspin=2,
  starting_magnetization(1)=1.0d00,
  starting_magnetization(2)=0.16666666666666666d00,
  starting_magnetization(3)=0.08333333333333333d00,
  input_dft='BEEF-vdW',
  edir=3,
  emaxpos=0.95515423573368d00,
  eopreg=0.025d00,
  eamp=0.0d00,
  nosym=.false.,
  noinv=.false.,
  nosym_evc=.false.,
  no_t_rev=.false.,
/
&ELECTRONS
  diagonalization='david',
  conv_thr=7.349864494991327e-08,
  mixing_beta=0.05d00,
  electron_maxstep=1000,
  startingwfc='atomic',
/
&IONS
  ion_dynamics='ipi',
/
&CELL
  cell_dynamics='ipi',
/
CELL_PARAMETERS alat
    6.579727202290808d0     0.000000000000000d0     0.000000000000000d0
   -0.000775132442404d0     5.961596420607155d0     0.000000000000000d0
    0.000000000000000d0    -0.000000000000000d0    25.155947251439940d0
ATOMIC_SPECIES
H1 1.008d00 H.UPF
O1 15.999d00 O.UPF
Ti1 47.867d00 Ti.UPF
ATOMIC_POSITIONS {crystal}
H1       0.931488972635685d0     0.491002085359615d0     0.723401832098107d0
O1       0.000095322930372d0     0.000084774873452d0     0.317452257936818d0
O1       0.500112315057126d0     0.000084209992886d0     0.290342007718641d0
O1       0.698270105622955d0     0.250236102495782d0     0.369213011426276d0
O1       0.301995368073695d0     0.249987007385122d0     0.369214717028816d0
O1       0.497078834338145d0     0.002927265311109d0     0.451023678897211d0
O1       0.999137645705194d0     0.001788641512527d0     0.421844646529115d0
O1       0.194329888657439d0     0.252478809694836d0     0.502845959023420d0
O1       0.802154823394867d0     0.252573477239565d0     0.502355111666362d0
O1       0.992097538435283d0     0.003258405137467d0     0.585604963896270d0
O1       0.498078163811135d0     0.003660055526788d0     0.553972012308395d0
O1       0.682823701417177d0     0.255853119663148d0     0.640098006646530d0
O1       0.304080051664868d0     0.254993524660428d0     0.638562229353614d0
O1       0.500093721748991d0     0.000084921243389d0     0.186906639369252d0
O1       0.994059953512559d0     0.007150900502184d0     0.685831978703077d0
O1       0.198268504441574d0     0.250236248865719d0     0.238667392858710d0
O1       0.801993766892314d0     0.249987153755059d0     0.238669098461250d0
O1       0.000095322930372d0     0.500084774873452d0     0.317452257936818d0
O1       0.500112315057126d0     0.500084209992886d0     0.290342007718641d0
O1       0.698270105622955d0     0.750236102495782d0     0.369213011426276d0
O1       0.301995368073695d0     0.749987007385122d0     0.369214717028816d0
O1       0.497248621116406d0     0.503260005530936d0     0.451105053690711d0
O1       0.000065449159119d0     0.502352712716322d0     0.420164372647929d0
O1       0.193898036188383d0     0.752789904431997d0     0.503131691540566d0
O1       0.802157682307030d0     0.753044667819547d0     0.502665270347513d0
O1       0.994898070116579d0     0.499888708226566d0     0.584567598044501d0
O1       0.497954858681889d0     0.503875350792794d0     0.553753708728688d0
O1       0.682953294764192d0     0.754306027110875d0     0.640608941647030d0
O1       0.303689861590593d0     0.754760930863513d0     0.639147252853513d0
O1       0.500093721748991d0     0.500084921243389d0     0.186906639369252d0
O1       0.198268504441574d0     0.750236248865719d0     0.238667392858710d0
O1       0.801993766892315d0     0.749987153755059d0     0.238669098461250d0
O1       0.997231943775960d0     0.502257133800491d0     0.689216893337810d0
Ti1      0.000123603383822d0     0.499897385958537d0     0.238512187198856d0
Ti1      0.500142521004230d0     0.250038178055688d0     0.238522014307695d0
Ti1      0.506448335105675d0     0.508760531513037d0     0.364047115293715d0
Ti1      0.003149269666143d0     0.270464802231718d0     0.372169728607446d0
Ti1      0.993508576527518d0     0.505288839089097d0     0.509866758696522d0
Ti1      0.489701258826674d0     0.253945023223588d0     0.496495914579447d0
Ti1      0.494171687069910d0     0.505356490230323d0     0.625006621314596d0
Ti1      0.995493675656048d0     0.242420951494004d0     0.635113695231520d0
Ti1      0.000123603383822d0     0.999897385958537d0     0.238512187198856d0
Ti1      0.500142521004230d0     0.750038178055688d0     0.238522014307695d0
Ti1      0.499428333694925d0     0.009468945690907d0     0.363834631650570d0
Ti1      0.004505613219666d0     0.760141849438357d0     0.368573864512110d0
Ti1      0.990807727006092d0     0.004370042622605d0     0.497638981345604d0
Ti1      0.489820796321085d0     0.754008521999993d0     0.496486416864628d0
Ti1      0.495373222844556d0     0.005281724798162d0     0.625176303844719d0
Ti1      0.995335264553483d0     0.774245411966944d0     0.641108356308917d0
K_POINTS automatic
4 4 1  0 0 0 
