&CONTROL
  calculation='relax',
  prefix='calc',
  pseudo_dir='/storage/coda1/p-amedford6/0/shared/rich_project_chbe-medford/medford-share/data/pseudos_module/espresso/nninc/pbe/van',
  outdir='.',
  tefield=.true.,
  dipfield=.true.,
  tprnfor=.true.,
  disk_io='none',
/
&SYSTEM
  ibrav=0,
  celldm(1)=1.8897261245650618d0,
  nat=55,
  ntyp=5,
  ecutwfc=29.39945797996531d00,
  ecutrho=293.9945797996531d00,
  nbnd=211,
  occupations='smearing',
  smearing='fd',
  degauss=0.007349864494991328d00,
  input_dft='BEEF-vdW',
  edir=3,
  emaxpos=0.9991644943175144d00,
  eopreg=0.025d00,
  eamp=0.0d00,
  nosym=.false.,
  noinv=.false.,
  nosym_evc=.false.,
  no_t_rev=.false.,
/
&ELECTRONS
  diagonalization='david',
  conv_thr=7.349864494991327e-08,
  mixing_beta=0.05d00,
  electron_maxstep=1000,
  startingwfc='atomic',
/
&IONS
  ion_dynamics='ipi',
/
&CELL
  cell_dynamics='ipi',
/
CELL_PARAMETERS alat
    6.579727202290808d0     0.000000000000000d0     0.000000000000000d0
   -0.000775132442404d0     5.961596420607155d0     0.000000000000000d0
    0.000000000000000d0    -0.000000000000000d0    25.155947251439940d0
ATOMIC_SPECIES
Ti1 47.867d00 Ti.UPF
O1 15.999d00 O.UPF
C1 12.011d00 C.UPF
H1 1.008d00 H.UPF
N1 14.007d00 N.UPF
ATOMIC_POSITIONS {crystal}
Ti1      0.000123603383822d0     0.499897385958537d0     0.238512187198856d0
Ti1      0.500142521004230d0     0.250038178055688d0     0.238522014307695d0
O1       0.000095322930372d0     0.000084774873452d0     0.317452257936818d0
O1       0.500112315057126d0     0.000084209992886d0     0.290342007718641d0
O1       0.698270105622955d0     0.250236102495782d0     0.369213011426276d0
O1       0.301995368073695d0     0.249987007385122d0     0.369214717028816d0
Ti1      0.501477292261051d0     0.497891752314361d0     0.364002266254475d0
Ti1      0.003336598366918d0     0.250274406335713d0     0.367933353752933d0
O1       0.495960958022637d0     0.000539349698051d0     0.453269847905389d0
O1       0.999356947782606d0     0.000341429902791d0     0.421915384459802d0
O1       0.190429409270665d0     0.251378730466046d0     0.504395490543323d0
O1       0.799931838400248d0     0.251794006841068d0     0.503611726487668d0
Ti1      0.995291197122065d0     0.500676941083198d0     0.496411193058427d0
Ti1      0.495705637651749d0     0.250222292784869d0     0.498890277047163d0
O1       0.989269865912824d0     0.000629657162833d0     0.584014379622440d0
O1       0.494794902688523d0     0.000481270944241d0     0.557545090597787d0
O1       0.683845764385793d0     0.252803998062384d0     0.643363897896146d0
O1       0.298475624928991d0     0.252333159846070d0     0.643015992495337d0
Ti1      0.490191947388693d0     0.501280472251155d0     0.628157087275539d0
Ti1      0.989462506939822d0     0.227313696688783d0     0.633888184528732d0
O1       0.500093721748991d0     0.000084921243389d0     0.186906639369252d0
O1       0.991824362070586d0     0.003683351473065d0     0.685171099692005d0
O1       0.198268504441574d0     0.250236248865719d0     0.238667392858710d0
O1       0.801993766892314d0     0.249987153755059d0     0.238669098461250d0
Ti1      0.000123603383822d0     0.999897385958537d0     0.238512187198856d0
Ti1      0.500142521004230d0     0.750038178055688d0     0.238522014307695d0
O1       0.000095322930372d0     0.500084774873452d0     0.317452257936818d0
O1       0.500112315057126d0     0.500084209992886d0     0.290342007718641d0
O1       0.698270105622955d0     0.750236102495782d0     0.369213011426276d0
O1       0.301995368073695d0     0.749987007385122d0     0.369214717028816d0
Ti1      0.503656311299428d0     0.997691798204584d0     0.364030734153289d0
Ti1      0.003453432393410d0     0.750407701067720d0     0.367926510827025d0
O1       0.495365464727180d0     0.500233838054265d0     0.453065029199346d0
O1       0.999309931066605d0     0.500236134741244d0     0.422458619599886d0
O1       0.190321455970687d0     0.749963613474367d0     0.504247693301522d0
O1       0.799922687194570d0     0.749461991936798d0     0.503533319674630d0
Ti1      0.996284294818780d0     0.000722797414069d0     0.496227151958469d0
Ti1      0.495664056606751d0     0.749846914019847d0     0.498792910524132d0
O1       0.991511354497437d0     0.502173952412572d0     0.597224972112506d0
O1       0.495089313508386d0     0.501227519699183d0     0.556746904883766d0
O1       0.683573941036978d0     0.749100300758462d0     0.644270585124957d0
O1       0.297611643274529d0     0.749889435046120d0     0.642990519438762d0
Ti1      0.490877554103662d0     0.000839137353560d0     0.629274866787952d0
Ti1      0.989432101419086d0     0.774884362086186d0     0.634044125930238d0
O1       0.500093721748991d0     0.500084921243389d0     0.186906639369252d0
O1       0.198268504441574d0     0.750236248865719d0     0.238667392858710d0
O1       0.801993766892315d0     0.749987153755059d0     0.238669098461250d0
C1       0.013159539679536d0     0.625995744082947d0     0.783315678190939d0
O1       0.160997457329802d0     0.799528862028047d0     0.781303583869512d0
H1       0.066431534079380d0     0.500357795274672d0     0.811422349265776d0
H1       0.114275707432810d0     0.908486769957620d0     0.755205896877461d0
H1       0.863916332062929d0     0.687165437278153d0     0.796041326338057d0
H1       0.993839772840463d0     0.541956901457604d0     0.744446133892548d0
N1       0.502969498470760d0     0.289004771403015d0     0.800767334086417d0
N1       0.500501304106408d0     0.379340867411384d0     0.762460176716431d0
K_POINTS automatic
4 4 1  0 0 0 
