&CONTROL
  calculation='relax',
  prefix='calc',
  pseudo_dir='/storage/coda1/p-amedford6/0/shared/rich_project_chbe-medford/medford-share/data/pseudos_module/espresso/nninc/pbe/van',
  outdir='.',
  tefield=.true.,
  dipfield=.true.,
  tprnfor=.true.,
  disk_io='none',
/
&SYSTEM
  ibrav=0,
  celldm(1)=1.8897261245650618d0,
  nat=55,
  ntyp=5,
  ecutwfc=29.39945797996531d00,
  ecutrho=293.9945797996531d00,
  nbnd=211,
  occupations='smearing',
  smearing='fd',
  degauss=0.007349864494991328d00,
  input_dft='BEEF-vdW',
  edir=3,
  emaxpos=0.9859848629377895d00,
  eopreg=0.025d00,
  eamp=0.0d00,
  nosym=.false.,
  noinv=.false.,
  nosym_evc=.false.,
  no_t_rev=.false.,
/
&ELECTRONS
  diagonalization='david',
  conv_thr=7.349864494991327e-08,
  mixing_beta=0.05d00,
  electron_maxstep=1000,
  startingwfc='atomic',
/
&IONS
  ion_dynamics='ipi',
/
&CELL
  cell_dynamics='ipi',
/
CELL_PARAMETERS alat
    6.579727202290808d0     0.000000000000000d0     0.000000000000000d0
   -0.000775132442404d0     5.961596420607155d0     0.000000000000000d0
    0.000000000000000d0    -0.000000000000000d0    25.155947251439940d0
ATOMIC_SPECIES
Ti1 47.867d00 Ti.UPF
O1 15.999d00 O.UPF
C1 12.011d00 C.UPF
H1 1.008d00 H.UPF
N1 14.007d00 N.UPF
ATOMIC_POSITIONS {crystal}
Ti1      0.000123603383822d0     0.499897385958537d0     0.238512187198856d0
Ti1      0.500142521004230d0     0.250038178055688d0     0.238522014307695d0
O1       0.000095322930372d0     0.000084774873452d0     0.317452257936818d0
O1       0.500112315057126d0     0.000084209992886d0     0.290342007718641d0
O1       0.698270105622955d0     0.250236102495782d0     0.369213011426276d0
O1       0.301995368073695d0     0.249987007385122d0     0.369214717028816d0
Ti1      0.504707035494364d0     0.503019475695622d0     0.363937870729442d0
Ti1      0.005946190780736d0     0.250854488545784d0     0.368484157363402d0
O1       0.501138568656453d0     0.998301945434514d0     0.452133059779736d0
O1       0.000420075318441d0     0.999273209683956d0     0.421899344276595d0
O1       0.197681297937665d0     0.247628904118288d0     0.503286732808422d0
O1       0.805595452653766d0     0.247695955123839d0     0.503382131305140d0
Ti1      0.999033084919799d0     0.496570836282342d0     0.498471306906908d0
Ti1      0.498534857428024d0     0.248818650064969d0     0.497406727048975d0
O1       0.002152375202958d0     0.996950450679913d0     0.584559302168117d0
O1       0.502746795697090d0     0.997186817133044d0     0.556665227465735d0
O1       0.692852746129683d0     0.252164116184121d0     0.644587957372092d0
O1       0.310067238032001d0     0.249352406591604d0     0.642908461427440d0
Ti1      0.501167424134605d0     0.497490439981404d0     0.625729301022055d0
Ti1      0.008744559980158d0     0.237031222532192d0     0.631272800046849d0
O1       0.500093721748991d0     0.000084921243389d0     0.186906639369252d0
O1       0.003035608615538d0     0.997308853230012d0     0.685444829141241d0
O1       0.198268504441574d0     0.250236248865719d0     0.238667392858710d0
O1       0.801993766892314d0     0.249987153755059d0     0.238669098461250d0
Ti1      0.000123603383822d0     0.999897385958537d0     0.238512187198856d0
Ti1      0.500142521004230d0     0.750038178055688d0     0.238522014307695d0
O1       0.000095322930372d0     0.500084774873452d0     0.317452257936818d0
O1       0.500112315057126d0     0.500084209992886d0     0.290342007718641d0
O1       0.698270105622955d0     0.750236102495782d0     0.369213011426276d0
O1       0.301995368073695d0     0.749987007385122d0     0.369214717028816d0
Ti1      0.504484510379240d0     0.003018790442068d0     0.363871079765111d0
Ti1      0.005992201387248d0     0.749052059726847d0     0.368423073524925d0
O1       0.501205113145222d0     0.498336265193367d0     0.451830157745450d0
O1       0.000551265491897d0     0.499035516939746d0     0.422640047224502d0
O1       0.197621729672497d0     0.747540789295899d0     0.503214590323431d0
O1       0.805501920045576d0     0.747315427255825d0     0.503296977907485d0
Ti1      0.999558801683590d0     0.995895380229828d0     0.496553732681590d0
Ti1      0.498492579527364d0     0.748205598619921d0     0.497481199959422d0
O1       0.001955381044291d0     0.495532387668003d0     0.591265601704305d0
O1       0.501540241533326d0     0.497342922690258d0     0.554774971255500d0
O1       0.693711327298510d0     0.742913172442456d0     0.643417058068148d0
O1       0.310877334424605d0     0.743383833218494d0     0.643806661601437d0
Ti1      0.504735824939657d0     0.996432688365379d0     0.627813125185945d0
Ti1      0.002694989563803d0     0.774709599998468d0     0.637396820122228d0
O1       0.500093721748991d0     0.500084921243389d0     0.186906639369252d0
O1       0.198268504441574d0     0.750236248865719d0     0.238667392858710d0
O1       0.801993766892315d0     0.749987153755059d0     0.238669098461250d0
C1       0.103985374636680d0     0.463598329786285d0     0.752326763950488d0
O1       0.982671439845037d0     0.487485027487316d0     0.704341301870672d0
H1       0.248401811548561d0     0.545285791714982d0     0.744444699654459d0
H1       0.841265312116707d0     0.450452885863000d0     0.711707858676548d0
H1       0.026822868375337d0     0.547646354969963d0     0.785063086506327d0
H1       0.125850894271177d0     0.285876613363729d0     0.760612918414049d0
N1       0.594435798035191d0     0.090257843175079d0     0.777688969111593d0
N1       0.584907073058378d0     0.906795733951929d0     0.771834685098236d0
K_POINTS automatic
4 4 1  0 0 0 
