&CONTROL
  calculation='relax',
  prefix='calc',
  pseudo_dir='/storage/coda1/p-amedford6/0/shared/rich_project_chbe-medford/medford-share/data/pseudos_module/espresso/nninc/pbe/van',
  outdir='.',
  tefield=.true.,
  dipfield=.true.,
  tprnfor=.true.,
  disk_io='none',
/
&SYSTEM
  ibrav=0,
  celldm(1)=1.8897261245650618d0,
  nat=54,
  ntyp=5,
  ecutwfc=29.39945797996531d00,
  ecutrho=293.9945797996531d00,
  nbnd=206,
  occupations='smearing',
  smearing='fd',
  degauss=0.007349864494991328d00,
  input_dft='BEEF-vdW',
  edir=3,
  emaxpos=0.9931828124785675d00,
  eopreg=0.025d00,
  eamp=0.0d00,
  nosym=.false.,
  noinv=.false.,
  nosym_evc=.false.,
  no_t_rev=.false.,
/
&ELECTRONS
  diagonalization='david',
  conv_thr=7.349864494991327e-08,
  mixing_beta=0.05d00,
  electron_maxstep=1000,
  startingwfc='atomic',
/
&IONS
  ion_dynamics='ipi',
/
&CELL
  cell_dynamics='ipi',
/
CELL_PARAMETERS alat
    6.579727202290808d0     0.000000000000000d0     0.000000000000000d0
   -0.000775132442404d0     5.961596420607155d0     0.000000000000000d0
    0.000000000000000d0    -0.000000000000000d0    25.155947251439940d0
ATOMIC_SPECIES
Ti1 47.867d00 Ti.UPF
O1 15.999d00 O.UPF
N1 14.007d00 N.UPF
C1 12.011d00 C.UPF
H1 1.008d00 H.UPF
ATOMIC_POSITIONS {crystal}
Ti1      0.000123603383822d0     0.499897385958536d0     0.238512187198856d0
Ti1      0.500142521004230d0     0.250038178055688d0     0.238522014307695d0
O1       0.000095322930372d0     0.000084774873452d0     0.317452257936818d0
O1       0.500112315057126d0     0.000084209992886d0     0.290342007718641d0
O1       0.698270105622955d0     0.250236102495782d0     0.369213011426276d0
O1       0.301995368073695d0     0.249987007385122d0     0.369214717028816d0
Ti1      0.500198167309398d0     0.485761668506182d0     0.364758343030283d0
Ti1      0.000261424674789d0     0.248709163236136d0     0.368424970923767d0
O1       0.494827074344932d0     0.997009968153867d0     0.452690216170275d0
O1       0.001882992193933d0     0.999479849154423d0     0.422099495650131d0
O1       0.190159984379531d0     0.246102736153802d0     0.504956040709348d0
O1       0.799600295000066d0     0.245764484575412d0     0.503977935192664d0
Ti1      0.993788975677600d0     0.496547208294961d0     0.497287460929407d0
Ti1      0.489848438814825d0     0.245805559272948d0     0.498529259586282d0
O1       0.992738375412524d0     0.978706624742950d0     0.584754656191657d0
O1       0.494825451933745d0     0.991679313390682d0     0.557159954244355d0
O1       0.682629668345450d0     0.247483544284098d0     0.642944549536870d0
O1       0.299861920087207d0     0.247259569027443d0     0.642392534683903d0
Ti1      0.491547416356971d0     0.493697575352863d0     0.626842554616217d0
Ti1      0.994905427436774d0     0.210643942392765d0     0.631282259385710d0
O1       0.500093721748991d0     0.000084921243389d0     0.186906639369252d0
O1       0.989489244625512d0     0.016338047463434d0     0.685976304078449d0
O1       0.198268504441574d0     0.250236248865719d0     0.238667392858710d0
O1       0.801993766892314d0     0.249987153755059d0     0.238669098461250d0
Ti1      0.000123603383822d0     0.999897385958536d0     0.238512187198856d0
Ti1      0.500142521004230d0     0.750038178055688d0     0.238522014307695d0
O1       0.000095322930372d0     0.500084774873452d0     0.317452257936818d0
O1       0.500112315057126d0     0.500084209992886d0     0.290342007718641d0
O1       0.698270105622955d0     0.750236102495782d0     0.369213011426276d0
O1       0.301995368073695d0     0.749987007385122d0     0.369214717028816d0
Ti1      0.500001644927041d0     0.985370751416071d0     0.364779031055315d0
Ti1      0.000183276761494d0     0.748948988039575d0     0.368476322807288d0
O1       0.494489946927306d0     0.494691794224298d0     0.452453452211931d0
O1       0.001460782485842d0     0.499964783615161d0     0.422656139091726d0
O1       0.190944536654213d0     0.744184462875834d0     0.503676568617095d0
O1       0.799330462623700d0     0.744743975282044d0     0.502811838658944d0
Ti1      0.990265991835429d0     0.994761539418575d0     0.496988102841148d0
Ti1      0.489817567769647d0     0.745512097834500d0     0.498178866578624d0
O1       0.989559507460052d0     0.500864803873709d0     0.595139947235670d0
O1       0.494728505123880d0     0.496061213374016d0     0.555774216586839d0
O1       0.680900156905473d0     0.741701267245088d0     0.646276066565364d0
O1       0.298900313632301d0     0.742175262818193d0     0.645391103082585d0
Ti1      0.493457547782738d0     0.993839312945616d0     0.628716399295521d0
Ti1      0.995465133557990d0     0.749084728842700d0     0.638600341301603d0
O1       0.500093721748991d0     0.500084921243389d0     0.186906639369252d0
O1       0.198268504441574d0     0.750236248865719d0     0.238667392858710d0
O1       0.801993766892315d0     0.749987153755059d0     0.238669098461250d0
N1       0.963856055799414d0     0.561399432197693d0     0.723327127730124d0
C1       0.134821122217881d0     0.497658646749267d0     0.758915657800519d0
H1       0.109978936616819d0     0.557981745735674d0     0.799458985587883d0
H1       0.276561294590388d0     0.568944353593228d0     0.743999952353916d0
H1       0.898104963800804d0     0.704850362745883d0     0.736849230657832d0
H1       0.853801712592076d0     0.440884247088982d0     0.724415210376759d0
H1       0.149579943214694d0     0.315116216708067d0     0.759068523656689d0
K_POINTS automatic
4 4 1  0 0 0 
