&CONTROL
  calculation='relax',
  prefix='calc',
  pseudo_dir='/storage/coda1/p-amedford6/0/shared/rich_project_chbe-medford/medford-share/data/pseudos_module/espresso/nninc/pbe/van',
  outdir='.',
  tefield=.true.,
  dipfield=.true.,
  tprnfor=.true.,
  disk_io='none',
/
&SYSTEM
  ibrav=0,
  celldm(1)=1.8897261245650618d0,
  nat=53,
  ntyp=5,
  ecutwfc=29.39945797996531d00,
  ecutrho=293.9945797996531d00,
  nbnd=210,
  occupations='smearing',
  smearing='fd',
  degauss=0.007349864494991328d00,
  input_dft='BEEF-vdW',
  edir=3,
  emaxpos=0.9675716007621651d00,
  eopreg=0.025d00,
  eamp=0.0d00,
  nosym=.false.,
  noinv=.false.,
  nosym_evc=.false.,
  no_t_rev=.false.,
/
&ELECTRONS
  diagonalization='david',
  conv_thr=7.349864494991327e-08,
  mixing_beta=0.05d00,
  electron_maxstep=1000,
  startingpot='file',
  startingwfc='atomic',
/
&IONS
  ion_dynamics='ipi',
/
&CELL
  cell_dynamics='ipi',
/
CELL_PARAMETERS alat
    6.579727202290808d0     0.000000000000000d0     0.000000000000000d0
   -0.000775132442404d0     5.961596420607155d0     0.000000000000000d0
    0.000000000000000d0    -0.000000000000000d0    25.155947251439940d0
ATOMIC_SPECIES
Ti1 47.867d00 Ti.UPF
O1 15.999d00 O.UPF
N1 14.007d00 N.UPF
C1 12.011d00 C.UPF
H1 1.008d00 H.UPF
ATOMIC_POSITIONS {crystal}
Ti1      0.000123603383822d0     0.499897385958536d0     0.238512187198856d0
Ti1      0.500142521004230d0     0.250038178055688d0     0.238522014307695d0
O1       0.000095322930372d0     0.000084774873452d0     0.317452257936818d0
O1       0.500112315057126d0     0.000084209992886d0     0.290342007718641d0
O1       0.698270105622955d0     0.250236102495782d0     0.369213011426276d0
O1       0.301995368073695d0     0.249987007385122d0     0.369214717028816d0
Ti1      0.501107733679662d0     0.480531433988655d0     0.364480561685992d0
Ti1      0.002141917959106d0     0.239199919229316d0     0.372862949162756d0
O1       0.498894974045081d0     0.996817202692162d0     0.450842193925781d0
O1       0.000015421863708d0     0.997016578826268d0     0.419836756944343d0
O1       0.191975432799314d0     0.246402551806101d0     0.502590584469256d0
O1       0.799870343021873d0     0.246987020869220d0     0.501847347609017d0
Ti1      0.009925730780480d0     0.495189060901499d0     0.509473844463723d0
Ti1      0.515247977426846d0     0.245301156559168d0     0.496588952463531d0
O1       0.997305403407606d0     0.996834314041023d0     0.582482638307017d0
O1       0.497210357595323d0     0.998040686460197d0     0.553294194144888d0
O1       0.685778862754514d0     0.250449330438742d0     0.638083990024232d0
O1       0.306861687546250d0     0.249963337976065d0     0.638133936908237d0
Ti1      0.494401823473084d0     0.497454122307808d0     0.625070477086472d0
Ti1      0.993850403246062d0     0.256141358302983d0     0.642319446982238d0
O1       0.500093721748991d0     0.000084921243389d0     0.186906639369252d0
O1       0.995745804577315d0     0.000922527401677d0     0.685255231667811d0
O1       0.198268504441574d0     0.250236248865719d0     0.238667392858710d0
O1       0.801993766892314d0     0.249987153755059d0     0.238669098461250d0
Ti1      0.000123603383822d0     0.999897385958536d0     0.238512187198856d0
Ti1      0.500142521004230d0     0.750038178055688d0     0.238522014307695d0
O1       0.000095322930372d0     0.500084774873452d0     0.317452257936818d0
O1       0.500112315057126d0     0.500084209992886d0     0.290342007718641d0
O1       0.698270105622955d0     0.750236102495782d0     0.369213011426276d0
O1       0.301995368073695d0     0.749987007385122d0     0.369214717028816d0
Ti1      0.501529021710655d0     0.980516873129357d0     0.364437654729782d0
Ti1      0.002259328177106d0     0.739219073777207d0     0.372891431405355d0
O1       0.498468617239563d0     0.496857652409717d0     0.450904920228429d0
O1       0.000181772611837d0     0.497032963567171d0     0.419852010538976d0
O1       0.192016870676400d0     0.746537505012994d0     0.502661361132478d0
O1       0.799832965524648d0     0.746589088614414d0     0.501955524234443d0
Ti1      0.009753682130738d0     0.995323147227269d0     0.509527663650411d0
Ti1      0.515130411239995d0     0.745820280706593d0     0.496512126160077d0
O1       0.997715044582406d0     0.495382342087252d0     0.582499859520034d0
O1       0.496855541814092d0     0.497413693685612d0     0.553203288190659d0
O1       0.686118843133850d0     0.749414504076869d0     0.637068217398755d0
O1       0.306471765774837d0     0.749549688754653d0     0.637068763729261d0
Ti1      0.494838517898705d0     0.998371585663443d0     0.625589608970005d0
Ti1      0.993786150529582d0     0.755591109903637d0     0.641793124780606d0
O1       0.500093721748991d0     0.500084921243389d0     0.186906639369252d0
O1       0.995855478460077d0     0.502454598860415d0     0.685096048818551d0
O1       0.198268504441574d0     0.750236248865719d0     0.238667392858710d0
O1       0.801993766892315d0     0.749987153755059d0     0.238669098461250d0
N1       0.497345455628717d0     0.753708044807102d0     0.742923646774562d0
N1       0.495821944220125d0     0.562994359707152d0     0.738603181828996d0
C1       0.499092375069360d0     0.971219958220943d0     0.741530565699270d0
H1       0.355750177166941d0     0.054864393333976d0     0.748236562155078d0
H1       0.644438304921378d0     0.053246218499707d0     0.747391707858523d0
K_POINTS automatic
4 4 1  0 0 0 
