&CONTROL
  calculation='relax',
  prefix='calc',
  pseudo_dir='/storage/coda1/p-amedford6/0/shared/rich_project_chbe-medford/medford-share/data/pseudos_module/espresso/nninc/pbe/van',
  outdir='.',
  tefield=.true.,
  dipfield=.true.,
  tprnfor=.true.,
  disk_io='none',
/
&SYSTEM
  ibrav=0,
  celldm(1)=1.8897261245650618d0,
  nat=59,
  ntyp=5,
  ecutwfc=29.39945797996531d00,
  ecutrho=293.9945797996531d00,
  nbnd=210,
  occupations='smearing',
  smearing='fd',
  degauss=0.007349864494991328d00,
  input_dft='BEEF-vdW',
  edir=3,
  emaxpos=0.07339193226720986d00,
  eopreg=0.025d00,
  eamp=0.0d00,
  nosym=.false.,
  noinv=.false.,
  nosym_evc=.false.,
  no_t_rev=.false.,
/
&ELECTRONS
  diagonalization='david',
  conv_thr=7.349864494991327e-08,
  mixing_beta=0.05d00,
  electron_maxstep=1000,
  startingpot='file',
  startingwfc='atomic',
/
&IONS
  ion_dynamics='ipi',
/
&CELL
  cell_dynamics='ipi',
/
CELL_PARAMETERS alat
    6.579727202290808d0     0.000000000000000d0     0.000000000000000d0
   -0.000775132442404d0     5.961596420607155d0     0.000000000000000d0
    0.000000000000000d0    -0.000000000000000d0    25.155947251439940d0
ATOMIC_SPECIES
Ti1 47.867d00 Ti.UPF
O1 15.999d00 O.UPF
C1 12.011d00 C.UPF
H1 1.008d00 H.UPF
N1 14.007d00 N.UPF
ATOMIC_POSITIONS {crystal}
Ti1      0.000123603383822d0     0.499897385958536d0     0.238512187198856d0
Ti1      0.500142521004230d0     0.250038178055688d0     0.238522014307695d0
O1       0.000095322930372d0     0.000084774873452d0     0.317452257936818d0
O1       0.500112315057126d0     0.000084209992886d0     0.290342007718641d0
O1       0.698270105622955d0     0.250236102495782d0     0.369213011426276d0
O1       0.301995368073695d0     0.249987007385122d0     0.369214717028816d0
Ti1      0.500198167309398d0     0.485761668506182d0     0.364758343030283d0
Ti1      0.000261424674789d0     0.248709163236136d0     0.368424970923767d0
O1       0.501756546479264d0     0.998496425721034d0     0.450495580967262d0
O1       0.001882992193933d0     0.999479849154423d0     0.422099495650131d0
O1       0.197395761075215d0     0.249205102876140d0     0.501594060286675d0
O1       0.802993324629494d0     0.249424592320904d0     0.501419847143747d0
Ti1      0.010954387232198d0     0.498198780437236d0     0.502185924075246d0
Ti1      0.515573147640984d0     0.248662695664987d0     0.496041487474105d0
O1       0.001503876312038d0     0.004648788853931d0     0.581468111008040d0
O1       0.501244660446643d0     0.000575800555204d0     0.553407668317239d0
O1       0.691422656396669d0     0.252206309975131d0     0.638688959190535d0
O1       0.312212843156861d0     0.251801222668733d0     0.638769993755189d0
Ti1      0.501191598707857d0     0.500629049263470d0     0.624198318481524d0
Ti1      0.999376661891532d0     0.240760897152463d0     0.629034446083436d0
O1       0.500093721748991d0     0.000084921243389d0     0.186906639369252d0
O1       0.000851246291580d0     0.999254556374360d0     0.682098172307581d0
O1       0.198268504441574d0     0.250236248865719d0     0.238667392858710d0
O1       0.801993766892314d0     0.249987153755059d0     0.238669098461250d0
Ti1      0.000123603383822d0     0.999897385958536d0     0.238512187198856d0
Ti1      0.500142521004230d0     0.750038178055688d0     0.238522014307695d0
O1       0.000095322930372d0     0.500084774873452d0     0.317452257936818d0
O1       0.500112315057126d0     0.500084209992886d0     0.290342007718641d0
O1       0.698270105622955d0     0.750236102495782d0     0.369213011426276d0
O1       0.301995368073695d0     0.749987007385122d0     0.369214717028816d0
Ti1      0.500001644927041d0     0.985370751416071d0     0.364779031055315d0
Ti1      0.000183276761494d0     0.748948988039575d0     0.368476322807288d0
O1       0.501978046853253d0     0.500066020806964d0     0.450440128354908d0
O1       0.001460782485842d0     0.499964783615161d0     0.422656139091726d0
O1       0.197166157865704d0     0.749498587272321d0     0.502249847383903d0
O1       0.803892134215883d0     0.749881584630002d0     0.502057774046459d0
Ti1      0.011950995652504d0     0.997346553237430d0     0.498846082384731d0
Ti1      0.515744338296850d0     0.748502645355793d0     0.496363011080876d0
O1       0.002196792706684d0     0.494182100429490d0     0.583730432333098d0
O1       0.501473932502615d0     0.499479032217779d0     0.552812675270133d0
O1       0.690367912526345d0     0.749445023994737d0     0.638599744553112d0
O1       0.312789175532776d0     0.749663046280402d0     0.638560825601920d0
Ti1      0.499439134001029d0     0.000858679568470d0     0.624884805495081d0
Ti1      0.999544808197694d0     0.759615464897487d0     0.641473436519729d0
O1       0.500093721748991d0     0.500084921243389d0     0.186906639369252d0
O1       0.198268504441574d0     0.750236248865719d0     0.238667392858710d0
O1       0.801993766892315d0     0.749987153755059d0     0.238669098461250d0
C1       0.002734570743323d0     0.510394677188033d0     0.707192924381294d0
H1       0.863685388768135d0     0.569633774499059d0     0.726449422111344d0
H1       0.016757694709547d0     0.334170302612506d0     0.718207585470379d0
H1       0.132410900971253d0     0.592894981451243d0     0.726190219792475d0
N1       0.934647401343764d0     0.261538118464333d0     0.867382880860120d0
H1       0.939203325639708d0     0.416813430116025d0     0.850479306175400d0
H1       0.949330727706548d0     0.151197192881038d0     0.836494372502438d0
H1       0.791682119406616d0     0.241210953778474d0     0.881811499780497d0
N1       0.433325366230220d0     0.162094583080373d0     0.921197627520550d0
H1       0.436056699176089d0     0.991843259785559d0     0.920482511817165d0
H1       0.289916092844217d0     0.207575180638690d0     0.910473067027250d0
H1       0.450500772489938d0     0.206804740038508d0     0.959877225165167d0
K_POINTS automatic
4 4 1  0 0 0 
