&CONTROL
  calculation='relax',
  prefix='calc',
  pseudo_dir='/storage/coda1/p-amedford6/0/shared/rich_project_chbe-medford/medford-share/data/pseudos_module/espresso/nninc/pbe/van',
  outdir='.',
  tefield=.true.,
  dipfield=.true.,
  tprnfor=.true.,
  disk_io='none',
/
&SYSTEM
  ibrav=0,
  celldm(1)=1.8897261245650618d0,
  nat=52,
  ntyp=5,
  ecutwfc=29.39945797996531d00,
  ecutrho=293.9945797996531d00,
  nbnd=205,
  occupations='smearing',
  smearing='fd',
  degauss=0.007349864494991328d00,
  input_dft='BEEF-vdW',
  edir=3,
  emaxpos=0.9787848639427145d00,
  eopreg=0.025d00,
  eamp=0.0d00,
  nosym=.false.,
  noinv=.false.,
  nosym_evc=.false.,
  no_t_rev=.false.,
/
&ELECTRONS
  diagonalization='david',
  conv_thr=7.349864494991327e-08,
  mixing_beta=0.05d00,
  electron_maxstep=1000,
  startingwfc='atomic',
/
&IONS
  ion_dynamics='ipi',
/
&CELL
  cell_dynamics='ipi',
/
CELL_PARAMETERS alat
    6.579727202290808d0     0.000000000000000d0     0.000000000000000d0
   -0.000775132442404d0     5.961596420607155d0     0.000000000000000d0
    0.000000000000000d0    -0.000000000000000d0    25.155947251439940d0
ATOMIC_SPECIES
Ti1 47.867d00 Ti.UPF
O1 15.999d00 O.UPF
N1 14.007d00 N.UPF
C1 12.011d00 C.UPF
H1 1.008d00 H.UPF
ATOMIC_POSITIONS {crystal}
Ti1      0.000123603383822d0     0.499897385958536d0     0.238512187198856d0
Ti1      0.500142521004230d0     0.250038178055688d0     0.238522014307695d0
O1       0.000095322930372d0     0.000084774873452d0     0.317452257936818d0
O1       0.500112315057126d0     0.000084209992886d0     0.290342007718641d0
O1       0.698270105622955d0     0.250236102495782d0     0.369213011426276d0
O1       0.301995368073695d0     0.249987007385122d0     0.369214717028816d0
Ti1      0.500198167309398d0     0.485761668506182d0     0.364758343030283d0
Ti1      0.000261424674789d0     0.248709163236136d0     0.368424970923767d0
O1       0.497086908411526d0     0.998659232379659d0     0.451401139991770d0
O1       0.001882992193933d0     0.999479849154423d0     0.422099495650131d0
O1       0.193973372192697d0     0.249975621769754d0     0.502844635406664d0
O1       0.800464925448464d0     0.251288553092761d0     0.501382242685213d0
Ti1      0.996121394131983d0     0.495160369399187d0     0.500822288657757d0
Ti1      0.498229972444578d0     0.249077652137017d0     0.497082869649779d0
O1       0.988329624251842d0     0.009169203971013d0     0.581789913016246d0
O1       0.501144616273176d0     0.002884228164760d0     0.554965645323172d0
O1       0.683349262140887d0     0.254891402954010d0     0.643491410231018d0
O1       0.301569980816485d0     0.249875393808734d0     0.640037420724861d0
Ti1      0.490332263038626d0     0.500658480025490d0     0.625555337306025d0
Ti1      0.993717736769485d0     0.239381655033163d0     0.639692628282807d0
O1       0.500093721748991d0     0.000084921243389d0     0.186906639369252d0
O1       0.995049878492359d0     0.983451909227966d0     0.682107941102066d0
O1       0.198268504441574d0     0.250236248865719d0     0.238667392858710d0
O1       0.801993766892314d0     0.249987153755059d0     0.238669098461250d0
Ti1      0.000123603383822d0     0.999897385958536d0     0.238512187198856d0
Ti1      0.500142521004230d0     0.750038178055688d0     0.238522014307695d0
O1       0.000095322930372d0     0.500084774873452d0     0.317452257936818d0
O1       0.500112315057126d0     0.500084209992886d0     0.290342007718641d0
O1       0.698270105622955d0     0.750236102495782d0     0.369213011426276d0
O1       0.301995368073695d0     0.749987007385122d0     0.369214717028816d0
Ti1      0.500001644927041d0     0.985370751416071d0     0.364779031055315d0
Ti1      0.000183276761494d0     0.748948988039575d0     0.368476322807288d0
O1       0.496496389124054d0     0.500680831625242d0     0.451345985934012d0
O1       0.001460782485842d0     0.499964783615161d0     0.422656139091726d0
O1       0.194010037613406d0     0.750928969816745d0     0.503974083831917d0
O1       0.800640845181170d0     0.749681607217730d0     0.502522363845329d0
Ti1      0.000004580093600d0     0.996920673974998d0     0.497310895330272d0
Ti1      0.498783532967093d0     0.748618287177652d0     0.497308179243280d0
O1       0.991188447947983d0     0.495627880293845d0     0.588093519117671d0
O1       0.498511622059655d0     0.498132058395428d0     0.554248464122068d0
O1       0.682192942322791d0     0.747218950162344d0     0.641031074295598d0
O1       0.302131904365256d0     0.752279435240581d0     0.636841041001429d0
Ti1      0.496896983562633d0     0.000613509774697d0     0.626388218128993d0
Ti1      0.995175441492174d0     0.773617267487875d0     0.627164782422069d0
O1       0.500093721748991d0     0.500084921243389d0     0.186906639369252d0
O1       0.198268504441574d0     0.750236248865719d0     0.238667392858710d0
O1       0.801993766892315d0     0.749987153755059d0     0.238669098461250d0
N1       0.152612363664130d0     0.511386754173949d0     0.697074716320859d0
C1       0.113845790306949d0     0.651516084045783d0     0.743249703572576d0
H1       0.102093383306744d0     0.825965986104469d0     0.729662804685210d0
H1       0.971322375710215d0     0.607256983702230d0     0.763431077423736d0
H1       0.241032888592828d0     0.637022085805757d0     0.770663088516176d0
K_POINTS automatic
4 4 1  0 0 0 
