&CONTROL
  calculation='relax',
  prefix='calc',
  pseudo_dir='/storage/coda1/p-amedford6/0/shared/rich_project_chbe-medford/medford-share/data/pseudos_module/espresso/nninc/pbe/van',
  outdir='.',
  tefield=.true.,
  dipfield=.true.,
  tprnfor=.true.,
  disk_io='none',
/
&SYSTEM
  ibrav=0,
  celldm(1)=1.8897261245650618d0,
  nat=53,
  ntyp=5,
  ecutwfc=29.39945797996531d00,
  ecutrho=293.9945797996531d00,
  nbnd=207,
  occupations='smearing',
  smearing='fd',
  degauss=0.007349864494991328d00,
  input_dft='BEEF-vdW',
  edir=3,
  emaxpos=0.9994531976329801d00,
  eopreg=0.025d00,
  eamp=0.0d00,
  nosym=.false.,
  noinv=.false.,
  nosym_evc=.false.,
  no_t_rev=.false.,
/
&ELECTRONS
  diagonalization='david',
  conv_thr=7.349864494991327e-08,
  mixing_beta=0.05d00,
  electron_maxstep=1000,
  startingpot='file',
  startingwfc='atomic',
/
&IONS
  ion_dynamics='ipi',
/
&CELL
  cell_dynamics='ipi',
/
CELL_PARAMETERS alat
    6.579727202290808d0     0.000000000000000d0     0.000000000000000d0
   -0.000775132442404d0     5.961596420607155d0     0.000000000000000d0
    0.000000000000000d0    -0.000000000000000d0    25.155947251439940d0
ATOMIC_SPECIES
Ti1 47.867d00 Ti.UPF
O1 15.999d00 O.UPF
N1 14.007d00 N.UPF
C1 12.011d00 C.UPF
H1 1.008d00 H.UPF
ATOMIC_POSITIONS {crystal}
Ti1      0.000123603383822d0     0.499897385958536d0     0.238512187198856d0
Ti1      0.500142521004230d0     0.250038178055688d0     0.238522014307695d0
O1       0.000095322930372d0     0.000084774873452d0     0.317452257936818d0
O1       0.500112315057126d0     0.000084209992886d0     0.290342007718641d0
O1       0.698270105622955d0     0.250236102495782d0     0.369213011426276d0
O1       0.301995368073695d0     0.249987007385122d0     0.369214717028816d0
Ti1      0.500198167309398d0     0.485761668506182d0     0.364758343030283d0
Ti1      0.000261424674789d0     0.248709163236136d0     0.368424970923767d0
O1       0.499653462042641d0     0.997180184483116d0     0.450573392690869d0
O1       0.001882992193933d0     0.999479849154423d0     0.422099495650131d0
O1       0.196049569639416d0     0.246564224398380d0     0.501902445074655d0
O1       0.801184644890136d0     0.246849968466574d0     0.501312449672258d0
Ti1      0.009627294764337d0     0.494171240123284d0     0.501701915887759d0
Ti1      0.513395705737789d0     0.246617937819960d0     0.496134455813038d0
O1       0.999272306306532d0     0.996243993406534d0     0.581460234421024d0
O1       0.500521277744839d0     0.996477639889544d0     0.553761005357808d0
O1       0.688985581958088d0     0.251137043237241d0     0.638379996348686d0
O1       0.310318352924367d0     0.251188157979374d0     0.637931117658686d0
Ti1      0.500100567055608d0     0.498573949658406d0     0.624250715279828d0
Ti1      0.998775163733681d0     0.251944814512932d0     0.628642223327952d0
O1       0.500093721748991d0     0.000084921243389d0     0.186906639369252d0
O1       0.999667461320540d0     0.002673543169195d0     0.682998995463355d0
O1       0.198268504441574d0     0.250236248865719d0     0.238667392858710d0
O1       0.801993766892314d0     0.249987153755059d0     0.238669098461250d0
Ti1      0.000123603383822d0     0.999897385958536d0     0.238512187198856d0
Ti1      0.500142521004230d0     0.750038178055688d0     0.238522014307695d0
O1       0.000095322930372d0     0.500084774873452d0     0.317452257936818d0
O1       0.500112315057126d0     0.500084209992886d0     0.290342007718641d0
O1       0.698270105622955d0     0.750236102495782d0     0.369213011426276d0
O1       0.301995368073695d0     0.749987007385122d0     0.369214717028816d0
Ti1      0.500001644927041d0     0.985370751416071d0     0.364779031055315d0
Ti1      0.000183276761494d0     0.748948988039575d0     0.368476322807288d0
O1       0.500225711339354d0     0.497443731137055d0     0.450454558559382d0
O1       0.001460782485842d0     0.499964783615161d0     0.422656139091726d0
O1       0.195902084906428d0     0.747050178920023d0     0.501945748782784d0
O1       0.801833907727563d0     0.748205809892386d0     0.501311017714434d0
Ti1      0.009635262630712d0     0.993031920352861d0     0.498985914600269d0
Ti1      0.513753736577110d0     0.746223204312322d0     0.496290343497074d0
O1       0.998887429274109d0     0.493838646061923d0     0.582286840874231d0
O1       0.500704220808769d0     0.498673082753037d0     0.552781782292967d0
O1       0.688745578908475d0     0.746951964059256d0     0.640087377231053d0
O1       0.310542649086562d0     0.747014800373012d0     0.639794377324594d0
Ti1      0.498906508413184d0     0.998204517724375d0     0.625199758254606d0
Ti1      0.999387289496903d0     0.779594327838069d0     0.639181432456575d0
O1       0.500093721748991d0     0.500084921243389d0     0.186906639369252d0
O1       0.198268504441574d0     0.750236248865719d0     0.238667392858710d0
O1       0.801993766892315d0     0.749987153755059d0     0.238669098461250d0
N1       0.012146401810112d0     0.446436205277213d0     0.740925313964940d0
N1       0.002063565107676d0     0.482994411196143d0     0.693210659673236d0
C1       0.023038835418101d0     0.636266447684099d0     0.778378144133249d0
H1       0.983438024609300d0     0.798326190887861d0     0.760571048248331d0
H1       0.925798276273121d0     0.597236053502192d0     0.811999755896708d0
H1       0.179608892207133d0     0.642207079441339d0     0.792960874515326d0
K_POINTS automatic
4 4 1  0 0 0 
