&CONTROL
  calculation='relax',
  prefix='calc',
  pseudo_dir='/storage/coda1/p-amedford6/0/shared/rich_project_chbe-medford/medford-share/data/pseudos_module/espresso/nninc/pbe/van',
  outdir='.',
  tefield=.true.,
  dipfield=.true.,
  tprnfor=.true.,
  disk_io='none',
/
&SYSTEM
  ibrav=0,
  celldm(1)=1.8897261245650618d0,
  nat=54,
  ntyp=5,
  ecutwfc=29.39945797996531d00,
  ecutrho=293.9945797996531d00,
  nbnd=208,
  occupations='smearing',
  smearing='fd',
  degauss=0.007349864494991328d00,
  input_dft='BEEF-vdW',
  edir=3,
  emaxpos=0.9875281443450981d00,
  eopreg=0.025d00,
  eamp=0.0d00,
  nosym=.false.,
  noinv=.false.,
  nosym_evc=.false.,
  no_t_rev=.false.,
/
&ELECTRONS
  diagonalization='david',
  conv_thr=7.349864494991327e-08,
  mixing_beta=0.05d00,
  electron_maxstep=1000,
  startingpot='file',
  startingwfc='atomic',
/
&IONS
  ion_dynamics='ipi',
/
&CELL
  cell_dynamics='ipi',
/
CELL_PARAMETERS alat
    6.579727202290808d0     0.000000000000000d0     0.000000000000000d0
   -0.000775132442404d0     5.961596420607155d0     0.000000000000000d0
    0.000000000000000d0    -0.000000000000000d0    25.155947251439940d0
ATOMIC_SPECIES
Ti1 47.867d00 Ti.UPF
O1 15.999d00 O.UPF
N1 14.007d00 N.UPF
C1 12.011d00 C.UPF
H1 1.008d00 H.UPF
ATOMIC_POSITIONS {crystal}
Ti1      0.000123603383822d0     0.499897385958536d0     0.238512187198856d0
Ti1      0.500142521004230d0     0.250038178055688d0     0.238522014307695d0
O1       0.000095322930372d0     0.000084774873452d0     0.317452257936818d0
O1       0.500112315057126d0     0.000084209992886d0     0.290342007718641d0
O1       0.698270105622955d0     0.250236102495782d0     0.369213011426276d0
O1       0.301995368073695d0     0.249987007385122d0     0.369214717028816d0
Ti1      0.500198167309398d0     0.485761668506182d0     0.364758343030283d0
Ti1      0.000261424674789d0     0.248709163236136d0     0.368424970923767d0
O1       0.499718240578748d0     0.995916739096090d0     0.451661460498572d0
O1       0.001882992193933d0     0.999479849154423d0     0.422099495650131d0
O1       0.192718604637676d0     0.249607800083029d0     0.502672283445799d0
O1       0.804452476860686d0     0.252224960207985d0     0.502461703112272d0
Ti1      0.995869739431592d0     0.491736878272620d0     0.498506876970705d0
Ti1      0.499975396132723d0     0.218020893580962d0     0.505399257395476d0
O1       0.995134678321881d0     0.014182306651788d0     0.582389614386729d0
O1       0.498920118848993d0     0.014766657753817d0     0.557226049877778d0
O1       0.690448196303973d0     0.264450310494333d0     0.640790300045152d0
O1       0.303557192877080d0     0.259862534135420d0     0.644369684885034d0
Ti1      0.496595451643143d0     0.507416146901694d0     0.623605819728139d0
Ti1      0.984969538778418d0     0.243775855249906d0     0.636308476073902d0
O1       0.500093721748991d0     0.000084921243389d0     0.186906639369252d0
O1       0.989527190705632d0     0.983553058341554d0     0.682403100809859d0
O1       0.198268504441574d0     0.250236248865719d0     0.238667392858710d0
O1       0.801993766892314d0     0.249987153755059d0     0.238669098461250d0
Ti1      0.000123603383822d0     0.999897385958536d0     0.238512187198856d0
Ti1      0.500142521004230d0     0.750038178055688d0     0.238522014307695d0
O1       0.000095322930372d0     0.500084774873452d0     0.317452257936818d0
O1       0.500112315057126d0     0.500084209992886d0     0.290342007718641d0
O1       0.698270105622955d0     0.750236102495782d0     0.369213011426276d0
O1       0.301995368073695d0     0.749987007385122d0     0.369214717028816d0
Ti1      0.500001644927041d0     0.985370751416071d0     0.364779031055315d0
Ti1      0.000183276761494d0     0.748948988039575d0     0.368476322807288d0
O1       0.498970219305140d0     0.504487945493002d0     0.449704103621016d0
O1       0.001460782485842d0     0.499964783615161d0     0.422656139091726d0
O1       0.193313743459714d0     0.750756928552873d0     0.503784785102926d0
O1       0.805254970039526d0     0.748147045632349d0     0.503707320791336d0
Ti1      0.005140376446088d0     0.993454013117826d0     0.497069431709308d0
Ti1      0.501480522008787d0     0.734143363747629d0     0.494538469115625d0
O1       0.002339909050554d0     0.493519518215595d0     0.590586528563208d0
O1       0.495464364819401d0     0.500475749422341d0     0.553141808166222d0
O1       0.691466860487792d0     0.737538499376931d0     0.638120158262387d0
O1       0.303453920627584d0     0.748504560184310d0     0.639768606324472d0
Ti1      0.482956268498943d0     0.006344895551019d0     0.646917915856537d0
Ti1      0.991673166613566d0     0.779356873226903d0     0.628066802307054d0
O1       0.500093721748991d0     0.500084921243389d0     0.186906639369252d0
O1       0.198268504441574d0     0.750236248865719d0     0.238667392858710d0
O1       0.801993766892315d0     0.749987153755059d0     0.238669098461250d0
N1       0.982563028117216d0     0.462291134272827d0     0.712643848047567d0
C1       0.114831571113561d0     0.455653749151213d0     0.749734095136230d0
H1       0.089975924426735d0     0.534722651484435d0     0.788149649320944d0
H1       0.256697581075113d0     0.367374354818917d0     0.743041889516498d0
H1       0.852790122361870d0     0.545345229403738d0     0.723385763227977d0
O1       0.525822929629542d0     0.995677085778246d0     0.720085617606790d0
H1       0.668827723442103d0     0.999180122831943d0     0.729807382443621d0
K_POINTS automatic
4 4 1  0 0 0 
