&CONTROL
  calculation='relax',
  prefix='calc',
  pseudo_dir='/storage/coda1/p-amedford6/0/shared/rich_project_chbe-medford/medford-share/data/pseudos_module/espresso/nninc/pbe/van',
  outdir='.',
  tefield=.true.,
  dipfield=.true.,
  tprnfor=.true.,
  disk_io='none',
/
&SYSTEM
  ibrav=0,
  celldm(1)=1.8897261245650618d0,
  nat=55,
  ntyp=5,
  ecutwfc=29.39945797996531d00,
  ecutrho=293.9945797996531d00,
  nbnd=211,
  occupations='smearing',
  smearing='fd',
  degauss=0.007349864494991328d00,
  input_dft='BEEF-vdW',
  edir=3,
  emaxpos=0.9720316789744607d00,
  eopreg=0.025d00,
  eamp=0.0d00,
  nosym=.false.,
  noinv=.false.,
  nosym_evc=.false.,
  no_t_rev=.false.,
/
&ELECTRONS
  diagonalization='david',
  conv_thr=7.349864494991327e-08,
  mixing_beta=0.05d00,
  electron_maxstep=1000,
  startingpot='file',
  startingwfc='atomic',
/
&IONS
  ion_dynamics='ipi',
/
&CELL
  cell_dynamics='ipi',
/
CELL_PARAMETERS alat
    6.579727202290808d0     0.000000000000000d0     0.000000000000000d0
   -0.000775132442404d0     5.961596420607155d0     0.000000000000000d0
    0.000000000000000d0    -0.000000000000000d0    25.155947251439940d0
ATOMIC_SPECIES
Ti1 47.867d00 Ti.UPF
O1 15.999d00 O.UPF
N1 14.007d00 N.UPF
C1 12.011d00 C.UPF
H1 1.008d00 H.UPF
ATOMIC_POSITIONS {crystal}
Ti1      0.000123603383822d0     0.499897385958536d0     0.238512187198856d0
Ti1      0.500142521004230d0     0.250038178055688d0     0.238522014307695d0
O1       0.000095322930372d0     0.000084774873452d0     0.317452257936818d0
O1       0.500112315057126d0     0.000084209992886d0     0.290342007718641d0
O1       0.698270105622955d0     0.250236102495782d0     0.369213011426276d0
O1       0.301995368073695d0     0.249987007385122d0     0.369214717028816d0
Ti1      0.500198167309398d0     0.485761668506182d0     0.364758343030283d0
Ti1      0.000261424674789d0     0.248709163236136d0     0.368424970923767d0
O1       0.501947200651573d0     0.995387273562521d0     0.448326715732445d0
O1       0.001882992193933d0     0.999479849154423d0     0.422099495650131d0
O1       0.195615862959283d0     0.246866581330700d0     0.502758600614685d0
O1       0.808396771656186d0     0.245836644598947d0     0.502587214515116d0
Ti1      0.007981437691992d0     0.513955755865485d0     0.506178388900706d0
Ti1      0.500146439818098d0     0.218089936912383d0     0.502749095760493d0
O1       0.000443621301765d0     0.995150532809312d0     0.583848028460289d0
O1       0.502152030474498d0     0.004458287760845d0     0.551276215493375d0
O1       0.702805489619828d0     0.272816493783171d0     0.640327336903724d0
O1       0.314863745415279d0     0.258816594946171d0     0.634229526811284d0
Ti1      0.507117424309865d0     0.501109861497944d0     0.620568039261111d0
Ti1      0.007518803043593d0     0.235309588119684d0     0.627980430932434d0
O1       0.500093721748991d0     0.000084921243389d0     0.186906639369252d0
O1       0.014356421829110d0     0.010525202566842d0     0.683472747488980d0
O1       0.198268504441574d0     0.250236248865719d0     0.238667392858710d0
O1       0.801993766892314d0     0.249987153755059d0     0.238669098461250d0
Ti1      0.000123603383822d0     0.999897385958536d0     0.238512187198856d0
Ti1      0.500142521004230d0     0.750038178055688d0     0.238522014307695d0
O1       0.000095322930372d0     0.500084774873452d0     0.317452257936818d0
O1       0.500112315057126d0     0.500084209992886d0     0.290342007718641d0
O1       0.698270105622955d0     0.750236102495782d0     0.369213011426276d0
O1       0.301995368073695d0     0.749987007385122d0     0.369214717028816d0
Ti1      0.500001644927041d0     0.985370751416071d0     0.364779031055315d0
Ti1      0.000183276761494d0     0.748948988039575d0     0.368476322807288d0
O1       0.502104296099904d0     0.504975162640404d0     0.447323964381510d0
O1       0.001460782485842d0     0.499964783615161d0     0.422656139091726d0
O1       0.198800606668072d0     0.745934056273910d0     0.502396393887498d0
O1       0.808669161437699d0     0.747208914621192d0     0.502297106288740d0
Ti1      0.996587466858258d0     0.012429551707451d0     0.498964451065715d0
Ti1      0.504354137799773d0     0.737232970715628d0     0.493045316420177d0
O1       0.005892665380240d0     0.502363909129326d0     0.586092597391904d0
O1       0.505221522015969d0     0.497567017556363d0     0.549987080056693d0
O1       0.694990338581812d0     0.756534571114204d0     0.633078373478374d0
O1       0.316804575381078d0     0.749222756434031d0     0.638024793171597d0
Ti1      0.494175906821562d0     0.996767203002722d0     0.646160189481358d0
Ti1      0.988938394109082d0     0.765418059685338d0     0.644267037350189d0
O1       0.500093721748991d0     0.500084921243389d0     0.186906639369252d0
O1       0.198268504441574d0     0.750236248865719d0     0.238667392858710d0
O1       0.801993766892315d0     0.749987153755059d0     0.238669098461250d0
N1       0.062743515003065d0     0.491265005470779d0     0.709142272222471d0
C1       0.209496068106366d0     0.505658772332743d0     0.742315370795104d0
H1       0.350027455803763d0     0.430557104912983d0     0.726984539094170d0
N1       0.877958918575010d0     0.605802964927965d0     0.722041458656217d0
H1       0.889744251831535d0     0.690743370530320d0     0.757156718579669d0
H1       0.761948184652158d0     0.493038342469275d0     0.722303769060737d0
O1       0.499749594287407d0     0.001959431968364d0     0.718980350102419d0
H1       0.394515891285780d0     0.936628976863501d0     0.740863957599476d0
K_POINTS automatic
4 4 1  0 0 0 
