&CONTROL
  calculation='relax',
  prefix='calc',
  pseudo_dir='/storage/coda1/p-amedford6/0/shared/rich_project_chbe-medford/medford-share/data/pseudos_module/espresso/nninc/pbe/van',
  outdir='.',
  tefield=.true.,
  dipfield=.true.,
  tprnfor=.true.,
  disk_io='none',
/
&SYSTEM
  ibrav=0,
  celldm(1)=1.8897261245650618d0,
  nat=54,
  ntyp=5,
  ecutwfc=29.39945797996531d00,
  ecutrho=293.9945797996531d00,
  nbnd=206,
  occupations='smearing',
  smearing='fd',
  degauss=0.007349864494991328d00,
  input_dft='BEEF-vdW',
  edir=3,
  emaxpos=0.9919820998667241d00,
  eopreg=0.025d00,
  eamp=0.0d00,
  nosym=.false.,
  noinv=.false.,
  nosym_evc=.false.,
  no_t_rev=.false.,
/
&ELECTRONS
  diagonalization='david',
  conv_thr=7.349864494991327e-08,
  mixing_beta=0.05d00,
  electron_maxstep=1000,
  startingpot='file',
  startingwfc='atomic',
/
&IONS
  ion_dynamics='ipi',
/
&CELL
  cell_dynamics='ipi',
/
CELL_PARAMETERS alat
    6.579727202290808d0     0.000000000000000d0     0.000000000000000d0
   -0.000775132442404d0     5.961596420607155d0     0.000000000000000d0
    0.000000000000000d0    -0.000000000000000d0    25.155947251439940d0
ATOMIC_SPECIES
Ti1 47.867d00 Ti.UPF
O1 15.999d00 O.UPF
N1 14.007d00 N.UPF
C1 12.011d00 C.UPF
H1 1.008d00 H.UPF
ATOMIC_POSITIONS {crystal}
Ti1      0.000123603383822d0     0.499897385958536d0     0.238512187198856d0
Ti1      0.500142521004230d0     0.250038178055688d0     0.238522014307695d0
O1       0.000095322930372d0     0.000084774873452d0     0.317452257936818d0
O1       0.500112315057126d0     0.000084209992886d0     0.290342007718641d0
O1       0.698270105622955d0     0.250236102495782d0     0.369213011426276d0
O1       0.301995368073695d0     0.249987007385122d0     0.369214717028816d0
Ti1      0.500198167309398d0     0.485761668506182d0     0.364758343030283d0
Ti1      0.000261424674789d0     0.248709163236136d0     0.368424970923767d0
O1       0.500736038306016d0     0.001030396254660d0     0.452045976065351d0
O1       0.001882992193933d0     0.999479849154423d0     0.422099495650131d0
O1       0.196324111007978d0     0.250550548937830d0     0.504555891323036d0
O1       0.805088146616742d0     0.250682945172872d0     0.504098868712216d0
Ti1      0.002769941969797d0     0.498975440940337d0     0.497225345220119d0
Ti1      0.503922929495673d0     0.249441711002253d0     0.497989462125695d0
O1       0.999415439628900d0     0.987154779955097d0     0.584106526282010d0
O1       0.501988732092807d0     0.997766750143460d0     0.556325531052618d0
O1       0.690085888591765d0     0.256617320329124d0     0.642189343970946d0
O1       0.307882930092216d0     0.255406444536082d0     0.640753299788267d0
Ti1      0.500370093557960d0     0.503579874921317d0     0.625957197098506d0
Ti1      0.001877293824982d0     0.219721591462135d0     0.630474793561681d0
O1       0.500093721748991d0     0.000084921243389d0     0.186906639369252d0
O1       0.998922142256357d0     0.026054962048795d0     0.685345070999094d0
O1       0.198268504441574d0     0.250236248865719d0     0.238667392858710d0
O1       0.801993766892314d0     0.249987153755059d0     0.238669098461250d0
Ti1      0.000123603383822d0     0.999897385958536d0     0.238512187198856d0
Ti1      0.500142521004230d0     0.750038178055688d0     0.238522014307695d0
O1       0.000095322930372d0     0.500084774873452d0     0.317452257936818d0
O1       0.500112315057126d0     0.500084209992886d0     0.290342007718641d0
O1       0.698270105622955d0     0.750236102495782d0     0.369213011426276d0
O1       0.301995368073695d0     0.749987007385122d0     0.369214717028816d0
Ti1      0.500001644927041d0     0.985370751416071d0     0.364779031055315d0
Ti1      0.000183276761494d0     0.748948988039575d0     0.368476322807288d0
O1       0.500494520513029d0     0.498361643046245d0     0.451815830132410d0
O1       0.001460782485842d0     0.499964783615161d0     0.422656139091726d0
O1       0.196966634598573d0     0.748740541699553d0     0.502986791753055d0
O1       0.804859466717783d0     0.748841194545460d0     0.502641213267022d0
Ti1      0.003280994445485d0     0.997252526828291d0     0.496918838364247d0
Ti1      0.504110102042660d0     0.748908253132862d0     0.497539595434535d0
O1       0.997153787856938d0     0.509655481037367d0     0.594650854058755d0
O1       0.501656833397374d0     0.503433164041903d0     0.554910536581658d0
O1       0.688956287480751d0     0.751211950975727d0     0.645519539229357d0
O1       0.306793405898273d0     0.750569249677292d0     0.644385979841819d0
Ti1      0.501446146776435d0     0.003095209904711d0     0.627716542635442d0
Ti1      0.003479040266292d0     0.758315409070724d0     0.637983770391354d0
O1       0.500093721748991d0     0.500084921243389d0     0.186906639369252d0
O1       0.198268504441574d0     0.750236248865719d0     0.238667392858710d0
O1       0.801993766892315d0     0.749987153755059d0     0.238669098461250d0
N1       0.977880010715463d0     0.571208590717503d0     0.721139179214820d0
C1       0.154859243877345d0     0.527081068366138d0     0.755363443394328d0
H1       0.113674153439597d0     0.507152651851838d0     0.797057560364196d0
H1       0.261912561806324d0     0.666681919721458d0     0.751668395369760d0
H1       0.901039683621999d0     0.707037255156576d0     0.735155718135284d0
H1       0.880030128430101d0     0.439062728307134d0     0.723013820850286d0
H1       0.230434845548374d0     0.374075645224727d0     0.741936542347910d0
K_POINTS automatic
4 4 1  0 0 0 
