&CONTROL
  calculation='relax',
  prefix='calc',
  pseudo_dir='/storage/coda1/p-amedford6/0/shared/rich_project_chbe-medford/medford-share/data/pseudos_module/espresso/nninc/pbe/van',
  outdir='.',
  tefield=.true.,
  dipfield=.true.,
  tprnfor=.true.,
  disk_io='none',
/
&SYSTEM
  ibrav=0,
  celldm(1)=1.8897261245650618d0,
  nat=55,
  ntyp=5,
  ecutwfc=29.39945797996531d00,
  ecutrho=293.9945797996531d00,
  nbnd=211,
  occupations='smearing',
  smearing='fd',
  degauss=0.007349864494991328d00,
  input_dft='BEEF-vdW',
  edir=3,
  emaxpos=0.985065057952317d00,
  eopreg=0.025d00,
  eamp=0.0d00,
  nosym=.false.,
  noinv=.false.,
  nosym_evc=.false.,
  no_t_rev=.false.,
/
&ELECTRONS
  diagonalization='david',
  conv_thr=7.349864494991327e-08,
  mixing_beta=0.05d00,
  electron_maxstep=1000,
  startingwfc='atomic',
/
&IONS
  ion_dynamics='ipi',
/
&CELL
  cell_dynamics='ipi',
/
CELL_PARAMETERS alat
    6.579727202290808d0     0.000000000000000d0     0.000000000000000d0
   -0.000775132442404d0     5.961596420607155d0     0.000000000000000d0
    0.000000000000000d0    -0.000000000000000d0    25.155947251439940d0
ATOMIC_SPECIES
Ti1 47.867d00 Ti.UPF
O1 15.999d00 O.UPF
C1 12.011d00 C.UPF
H1 1.008d00 H.UPF
N1 14.007d00 N.UPF
ATOMIC_POSITIONS {crystal}
Ti1      0.000123603383822d0     0.499897385958537d0     0.238512187198856d0
Ti1      0.500142521004230d0     0.250038178055688d0     0.238522014307695d0
O1       0.000095322930372d0     0.000084774873452d0     0.317452257936818d0
O1       0.500112315057126d0     0.000084209992886d0     0.290342007718641d0
O1       0.698270105622955d0     0.250236102495782d0     0.369213011426276d0
O1       0.301995368073695d0     0.249987007385122d0     0.369214717028816d0
Ti1      0.504180317370455d0     0.496882794401645d0     0.363970091868719d0
Ti1      0.005664813271984d0     0.251333877361878d0     0.368565199779442d0
O1       0.497268323914298d0     0.997546245161567d0     0.452235552026952d0
O1       0.999565419690396d0     0.999005415602908d0     0.422014480580025d0
O1       0.193743266566521d0     0.247369632353381d0     0.503791489418260d0
O1       0.801755426378347d0     0.246936810911176d0     0.503223573522219d0
Ti1      0.993943472885138d0     0.495901479078024d0     0.498466682673194d0
Ti1      0.492784294404510d0     0.246745731540220d0     0.497693419442975d0
O1       0.994604656899352d0     0.994557609174413d0     0.584538084459739d0
O1       0.498483367725003d0     0.997429931848587d0     0.556780325443908d0
O1       0.685574053824797d0     0.250741142277907d0     0.644886659363038d0
O1       0.303058670914068d0     0.249619974622769d0     0.643183830783885d0
Ti1      0.494879897541037d0     0.496050949720458d0     0.625774962334987d0
Ti1      0.998390704337974d0     0.220172856987615d0     0.636340949008949d0
O1       0.500093721748991d0     0.000084921243389d0     0.186906639369252d0
O1       0.996596020800214d0     0.995458553353619d0     0.685336803383763d0
O1       0.198268504441574d0     0.250236248865719d0     0.238667392858710d0
O1       0.801993766892314d0     0.249987153755059d0     0.238669098461250d0
Ti1      0.000123603383822d0     0.999897385958537d0     0.238512187198856d0
Ti1      0.500142521004230d0     0.750038178055688d0     0.238522014307695d0
O1       0.000095322930372d0     0.500084774873452d0     0.317452257936818d0
O1       0.500112315057126d0     0.500084209992886d0     0.290342007718641d0
O1       0.698270105622955d0     0.750236102495782d0     0.369213011426276d0
O1       0.301995368073695d0     0.749987007385122d0     0.369214717028816d0
Ti1      0.505173046499995d0     0.996831850989097d0     0.363901466851821d0
Ti1      0.005795798220481d0     0.749868763281223d0     0.368407827883980d0
O1       0.497441888494340d0     0.497064928677566d0     0.451928697271911d0
O1       0.999198146790420d0     0.498626234888279d0     0.422765515890947d0
O1       0.193750528928201d0     0.746612243941759d0     0.503643938655004d0
O1       0.801786377553656d0     0.746819014096198d0     0.503117199387389d0
Ti1      0.994760786750477d0     0.996317580748384d0     0.496611696420930d0
Ti1      0.492574207650399d0     0.746184020475167d0     0.497477207038564d0
O1       0.993471224839232d0     0.496704498580082d0     0.592075787718452d0
O1       0.498594146460511d0     0.497253617553616d0     0.554838616970059d0
O1       0.685785921194885d0     0.742233727167355d0     0.644320703697258d0
O1       0.303414122308099d0     0.743122048283984d0     0.642979031831686d0
Ti1      0.497167341049767d0     0.996360261340828d0     0.628004093763908d0
Ti1      0.998157863886247d0     0.758746149889733d0     0.632676376975186d0
O1       0.500093721748991d0     0.500084921243389d0     0.186906639369252d0
O1       0.198268504441574d0     0.750236248865719d0     0.238667392858710d0
O1       0.801993766892315d0     0.749987153755059d0     0.238669098461250d0
C1       0.093869903318526d0     0.501349327579712d0     0.753323844256314d0
O1       0.975354140907321d0     0.494806809431550d0     0.704717641783864d0
H1       0.252077603642707d0     0.506476705031515d0     0.741443884435064d0
H1       0.831038254196989d0     0.496636871462237d0     0.713110319206885d0
H1       0.055348254206195d0     0.652539424340903d0     0.775438475504558d0
H1       0.064184398142998d0     0.350408887909009d0     0.776427611972229d0
N1       0.526634097208443d0     0.024844870071502d0     0.783223476535382d0
N1       0.562645198467765d0     0.846466344272368d0     0.775861907574003d0
K_POINTS automatic
4 4 1  0 0 0 
