&CONTROL
  calculation='relax',
  prefix='calc',
  pseudo_dir='/storage/coda1/p-amedford6/0/shared/rich_project_chbe-medford/medford-share/data/pseudos_module/espresso/nninc/pbe/van',
  outdir='.',
  tefield=.true.,
  dipfield=.true.,
  tprnfor=.true.,
  disk_io='none',
/
&SYSTEM
  ibrav=0,
  celldm(1)=1.8897261245650618d0,
  nat=55,
  ntyp=5,
  ecutwfc=29.39945797996531d00,
  ecutrho=293.9945797996531d00,
  nbnd=211,
  occupations='smearing',
  smearing='fd',
  degauss=0.007349864494991328d00,
  input_dft='BEEF-vdW',
  edir=3,
  emaxpos=0.9853481597959819d00,
  eopreg=0.025d00,
  eamp=0.0d00,
  nosym=.false.,
  noinv=.false.,
  nosym_evc=.false.,
  no_t_rev=.false.,
/
&ELECTRONS
  diagonalization='david',
  conv_thr=7.349864494991327e-08,
  mixing_beta=0.05d00,
  electron_maxstep=1000,
  startingwfc='atomic',
/
&IONS
  ion_dynamics='ipi',
/
&CELL
  cell_dynamics='ipi',
/
CELL_PARAMETERS alat
    6.579727202290808d0     0.000000000000000d0     0.000000000000000d0
   -0.000775132442404d0     5.961596420607155d0     0.000000000000000d0
    0.000000000000000d0    -0.000000000000000d0    25.155947251439940d0
ATOMIC_SPECIES
Ti1 47.867d00 Ti.UPF
O1 15.999d00 O.UPF
C1 12.011d00 C.UPF
H1 1.008d00 H.UPF
N1 14.007d00 N.UPF
ATOMIC_POSITIONS {crystal}
Ti1      0.000123603383822d0     0.499897385958537d0     0.238512187198856d0
Ti1      0.500142521004230d0     0.250038178055688d0     0.238522014307695d0
O1       0.000095322930372d0     0.000084774873452d0     0.317452257936818d0
O1       0.500112315057126d0     0.000084209992886d0     0.290342007718641d0
O1       0.698270105622955d0     0.250236102495782d0     0.369213011426276d0
O1       0.301995368073695d0     0.249987007385122d0     0.369214717028816d0
Ti1      0.500382774402401d0     0.496270873229871d0     0.363931652376353d0
Ti1      0.005049605212103d0     0.249109916422702d0     0.368331819715886d0
O1       0.499997270177229d0     0.994152375286852d0     0.451325327198510d0
O1       0.003770907385786d0     0.997643448221347d0     0.421380490939115d0
O1       0.198054712153977d0     0.243323312508009d0     0.502903715701001d0
O1       0.805137790759821d0     0.242089739971037d0     0.502108549375408d0
Ti1      0.006401282805206d0     0.495020864432826d0     0.499002972308735d0
Ti1      0.508853633182790d0     0.243938695272116d0     0.496297237703268d0
O1       0.001415823678812d0     0.989888561687727d0     0.582274817139211d0
O1       0.502042741965282d0     0.992427644018387d0     0.555617349427558d0
O1       0.693536882323941d0     0.243372400168926d0     0.641890029297735d0
O1       0.310210113310199d0     0.245498386094467d0     0.642086016539614d0
Ti1      0.503579445581808d0     0.491674060469183d0     0.624271146535040d0
Ti1      0.997716523276501d0     0.220897292447647d0     0.632060285665253d0
O1       0.500093721748991d0     0.000084921243389d0     0.186906639369252d0
O1       0.000974283376795d0     0.988792925260138d0     0.682515052496914d0
O1       0.198268504441574d0     0.250236248865719d0     0.238667392858710d0
O1       0.801993766892314d0     0.249987153755059d0     0.238669098461250d0
Ti1      0.000123603383822d0     0.999897385958537d0     0.238512187198856d0
Ti1      0.500142521004230d0     0.750038178055688d0     0.238522014307695d0
O1       0.000095322930372d0     0.500084774873452d0     0.317452257936818d0
O1       0.500112315057126d0     0.500084209992886d0     0.290342007718641d0
O1       0.698270105622955d0     0.750236102495782d0     0.369213011426276d0
O1       0.301995368073695d0     0.749987007385122d0     0.369214717028816d0
Ti1      0.507369230866299d0     0.995642195092903d0     0.363889722416905d0
Ti1      0.005257668993744d0     0.745674084867100d0     0.368596013128576d0
O1       0.501519365982745d0     0.494170244335931d0     0.450974990050478d0
O1       0.003115094456110d0     0.497376324404573d0     0.422280532599634d0
O1       0.197687225914427d0     0.742881679261855d0     0.502865463502680d0
O1       0.805130290687315d0     0.743129163698937d0     0.502034466056017d0
Ti1      0.007648236330173d0     0.995596638314519d0     0.495781807526945d0
Ti1      0.508725477794487d0     0.743512985930885d0     0.496675279060153d0
O1       0.001186278018981d0     0.490030550356985d0     0.589058908190117d0
O1       0.502899137915304d0     0.493055747370690d0     0.553449506594122d0
O1       0.694039220553968d0     0.736992160793483d0     0.641728371663182d0
O1       0.310955690158568d0     0.735184675302282d0     0.642655773595480d0
Ti1      0.499564000242459d0     0.991397751370578d0     0.626739107077802d0
Ti1      0.999620977868232d0     0.759377896404906d0     0.632235008944117d0
O1       0.500093721748991d0     0.500084921243389d0     0.186906639369252d0
O1       0.198268504441574d0     0.750236248865719d0     0.238667392858710d0
O1       0.801993766892315d0     0.749987153755059d0     0.238669098461250d0
C1       0.900563080080568d0     0.471342132313138d0     0.750360208554578d0
O1       0.020393906786472d0     0.478737630880019d0     0.701705337313933d0
H1       0.841255094607119d0     0.302434965404959d0     0.755701706482044d0
H1       0.164471008081296d0     0.475687690928783d0     0.709657304740471d0
H1       0.996885665279916d0     0.517927577873523d0     0.783789680222711d0
H1       0.778445408854806d0     0.592297874046319d0     0.745811477182473d0
N1       0.447321616215497d0     0.896544614487118d0     0.780130320722186d0
N1       0.375918223348485d0     0.061289748178403d0     0.772446476653069d0
K_POINTS automatic
4 4 1  0 0 0 
