&CONTROL
  calculation='relax',
  prefix='calc',
  pseudo_dir='/storage/coda1/p-amedford6/0/shared/rich_project_chbe-medford/medford-share/data/pseudos_module/espresso/nninc/pbe/van',
  outdir='.',
  tefield=.true.,
  dipfield=.true.,
  tprnfor=.true.,
  disk_io='none',
/
&SYSTEM
  ibrav=0,
  celldm(1)=1.8897261245650618d0,
  nat=50,
  ntyp=4,
  ecutwfc=29.39945797996531d00,
  ecutrho=293.9945797996531d00,
  nbnd=206,
  occupations='smearing',
  smearing='fd',
  degauss=0.007349864494991328d00,
  input_dft='BEEF-vdW',
  edir=3,
  emaxpos=0.9816583579289908d00,
  eopreg=0.025d00,
  eamp=0.0d00,
  nosym=.false.,
  noinv=.false.,
  nosym_evc=.false.,
  no_t_rev=.false.,
/
&ELECTRONS
  diagonalization='david',
  conv_thr=7.349864494991327e-08,
  mixing_beta=0.05d00,
  electron_maxstep=1000,
  startingpot='file',
  startingwfc='atomic',
/
&IONS
  ion_dynamics='ipi',
/
&CELL
  cell_dynamics='ipi',
/
CELL_PARAMETERS alat
    6.579727202290808d0     0.000000000000000d0     0.000000000000000d0
   -0.000775132442404d0     5.961596420607155d0     0.000000000000000d0
    0.000000000000000d0    -0.000000000000000d0    25.155947251439940d0
ATOMIC_SPECIES
Ti1 47.867d00 Ti.UPF
O1 15.999d00 O.UPF
N1 14.007d00 N.UPF
C1 12.011d00 C.UPF
ATOMIC_POSITIONS {crystal}
Ti1      0.000123603383822d0     0.499897385958536d0     0.238512187198856d0
Ti1      0.500142521004230d0     0.250038178055688d0     0.238522014307695d0
O1       0.000095322930372d0     0.000084774873452d0     0.317452257936818d0
O1       0.500112315057126d0     0.000084209992886d0     0.290342007718641d0
O1       0.698270105622955d0     0.250236102495782d0     0.369213011426276d0
O1       0.301995368073695d0     0.249987007385122d0     0.369214717028816d0
Ti1      0.500198167309398d0     0.485761668506182d0     0.364758343030283d0
Ti1      0.000261424674789d0     0.248709163236136d0     0.368424970923767d0
O1       0.499975603412783d0     0.999263351583922d0     0.449360825544113d0
O1       0.001882992193933d0     0.999479849154423d0     0.422099495650131d0
O1       0.200483480190433d0     0.250650325096796d0     0.501393541297846d0
O1       0.805502991699392d0     0.249666331625407d0     0.501871768464302d0
Ti1      0.987027456952872d0     0.500273494950774d0     0.507084809812488d0
Ti1      0.481540051273747d0     0.249721248785169d0     0.495704928402814d0
O1       0.003526565350642d0     0.999427406645101d0     0.580087312054830d0
O1       0.500036582310760d0     0.998660704109277d0     0.551947717830963d0
O1       0.690623471481582d0     0.248838530953940d0     0.637340202632442d0
O1       0.315476065510547d0     0.248863433603920d0     0.636942062242182d0
Ti1      0.501685580833029d0     0.497503828425654d0     0.623687073084449d0
Ti1      0.994014622667368d0     0.241997347558538d0     0.638606971964135d0
O1       0.500093721748991d0     0.000084921243389d0     0.186906639369252d0
O1       0.004045146994913d0     0.998603075205507d0     0.682357663120063d0
O1       0.198268504441574d0     0.250236248865719d0     0.238667392858710d0
O1       0.801993766892314d0     0.249987153755059d0     0.238669098461250d0
Ti1      0.000123603383822d0     0.999897385958536d0     0.238512187198856d0
Ti1      0.500142521004230d0     0.750038178055688d0     0.238522014307695d0
O1       0.000095322930372d0     0.500084774873452d0     0.317452257936818d0
O1       0.500112315057126d0     0.500084209992886d0     0.290342007718641d0
O1       0.698270105622955d0     0.750236102495782d0     0.369213011426276d0
O1       0.301995368073695d0     0.749987007385122d0     0.369214717028816d0
Ti1      0.500001644927041d0     0.985370751416071d0     0.364779031055315d0
Ti1      0.000183276761494d0     0.748948988039575d0     0.368476322807288d0
O1       0.500461568777544d0     0.499323396936937d0     0.449354853148716d0
O1       0.001460782485842d0     0.499964783615161d0     0.422656139091726d0
O1       0.200543757962415d0     0.747908080604264d0     0.501398542870196d0
O1       0.805475198701781d0     0.749580636959385d0     0.501888134414216d0
Ti1      0.986877383192375d0     0.000311204865978d0     0.505330580589748d0
Ti1      0.481674187069652d0     0.749508425035973d0     0.495693699354109d0
O1       0.996684547540624d0     0.499482246182005d0     0.582173611972388d0
O1       0.501994548356749d0     0.498535062001008d0     0.551777198072969d0
O1       0.690517649830243d0     0.747972460071253d0     0.637267230727161d0
O1       0.315380277104847d0     0.747625527300369d0     0.636823464332139d0
Ti1      0.493767967918653d0     0.997464507950902d0     0.623941742610095d0
Ti1      0.993825724021503d0     0.755693350332396d0     0.638095952227536d0
O1       0.500093721748991d0     0.500084921243389d0     0.186906639369252d0
O1       0.198268504441574d0     0.750236248865719d0     0.238667392858710d0
O1       0.801993766892315d0     0.749987153755059d0     0.238669098461250d0
N1       0.100786350201437d0     0.502087537384573d0     0.734538028247386d0
C1       0.188441721006580d0     0.505744818392768d0     0.776410076488729d0
N1       0.014708719160446d0     0.499427676685807d0     0.688440872385047d0
K_POINTS automatic
4 4 1  0 0 0 
