&CONTROL
  calculation='relax',
  prefix='calc',
  pseudo_dir='/storage/coda1/p-amedford6/0/shared/rich_project_chbe-medford/medford-share/data/pseudos_module/espresso/nninc/pbe/van',
  outdir='.',
  tefield=.true.,
  dipfield=.true.,
  tprnfor=.true.,
  disk_io='none',
/
&SYSTEM
  ibrav=0,
  celldm(1)=1.8897261245650618d0,
  nat=57,
  ntyp=4,
  ecutwfc=29.39945797996531d00,
  ecutrho=293.9945797996531d00,
  nbnd=229,
  occupations='smearing',
  smearing='fd',
  degauss=0.007349864494991328d00,
  input_dft='BEEF-vdW',
  edir=3,
  emaxpos=0.037629936392876706d00,
  eopreg=0.025d00,
  eamp=0.0d00,
  nosym=.false.,
  noinv=.false.,
  nosym_evc=.false.,
  no_t_rev=.false.,
/
&ELECTRONS
  diagonalization='david',
  conv_thr=7.349864494991327e-08,
  mixing_beta=0.05d00,
  electron_maxstep=1000,
  startingpot='file',
  startingwfc='atomic',
/
&IONS
  ion_dynamics='ipi',
/
&CELL
  cell_dynamics='ipi',
/
CELL_PARAMETERS alat
    6.579727202290808d0     0.000000000000000d0     0.000000000000000d0
   -0.001162698663605d0     8.942394630910734d0     0.000000000000000d0
    0.000000000000000d0    -0.000000000000000d0    25.155947251439940d0
ATOMIC_SPECIES
O1 15.999d00 O.UPF
Ti1 47.867d00 Ti.UPF
H1 1.008d00 H.UPF
N1 14.007d00 N.UPF
ATOMIC_POSITIONS {crystal}
O1       0.000111781329999d0     0.000056172521910d0     0.421099706309416d0
O1       0.500110382623225d0     0.996948028502600d0     0.551067702556826d0
O1       0.999990539624404d0     0.995593912994031d0     0.682984553547227d0
O1       0.000095322930372d0     0.000056516582301d0     0.317452257936818d0
O1       0.500113689938214d0     0.996411614260496d0     0.444440039094940d0
O1       0.000027085750865d0     0.010047715219890d0     0.575826529592258d0
O1       0.301995368073695d0     0.166658004923414d0     0.369214717028816d0
O1       0.791522730605012d0     0.177583883394267d0     0.498135155205202d0
O1       0.308109659893310d0     0.174355089132226d0     0.636648018561179d0
Ti1      0.000141987277103d0     0.166692151230444d0     0.369279712898471d0
Ti1      0.500123301342222d0     0.146916525480862d0     0.496370739825701d0
Ti1      0.000064379784727d0     0.133971263028274d0     0.634058474713829d0
O1       0.698270105622955d0     0.166824068330521d0     0.369213011426276d0
O1       0.208624766420107d0     0.177547605847789d0     0.498135353382924d0
O1       0.692018065283633d0     0.174400288115919d0     0.636639146443021d0
Ti1      0.500123069656695d0     0.333264956499010d0     0.369269885789632d0
Ti1      0.000188384594066d0     0.310909447121362d0     0.496494546388658d0
Ti1      0.500058769736739d0     0.320243026041679d0     0.623045711887909d0
O1       0.000111781329999d0     0.333389505855244d0     0.421099706309416d0
O1       0.500069283492918d0     0.330174685049462d0     0.550587692660153d0
O1       0.000095322930372d0     0.333389849915635d0     0.317452257936818d0
O1       0.500097516936438d0     0.331022565339640d0     0.444281648861315d0
O1       0.000132126723064d0     0.340885466950873d0     0.576370848086753d0
O1       0.301995368073695d0     0.499991338256748d0     0.369214717028816d0
O1       0.792248971534407d0     0.512120885114164d0     0.498840703829594d0
O1       0.309830392031133d0     0.505094993017406d0     0.635874315890377d0
Ti1      0.000141987277103d0     0.500025484563778d0     0.369279712898471d0
Ti1      0.500107900155484d0     0.480811431194729d0     0.496368629196048d0
Ti1      0.000223058757273d0     0.484870894289100d0     0.626642024955664d0
O1       0.698270105622955d0     0.500157401663855d0     0.369213011426276d0
O1       0.207919941317998d0     0.512147553959945d0     0.498845828069553d0
O1       0.690364912897179d0     0.504931014052128d0     0.635875972099844d0
Ti1      0.500123069656695d0     0.666598289832344d0     0.369269885789632d0
Ti1      0.000178709026836d0     0.646729447524570d0     0.497068902256616d0
Ti1      0.500292916463234d0     0.652745446741035d0     0.623652264426551d0
O1       0.000111781329999d0     0.666722839188577d0     0.421099706309416d0
O1       0.500165567354215d0     0.663887640087048d0     0.551362012685926d0
O1       0.000054819581320d0     0.657604542535050d0     0.685062142420788d0
O1       0.000095322930372d0     0.666723183248968d0     0.317452257936818d0
O1       0.500111861939415d0     0.663936350427379d0     0.444405523595580d0
O1       0.000022764081165d0     0.671551400926316d0     0.580679906417535d0
O1       0.301995368073695d0     0.833324671590081d0     0.369214717028816d0
O1       0.792460616375327d0     0.842522180459551d0     0.499091214970430d0
O1       0.309085969031557d0     0.840000739967693d0     0.636876787531286d0
Ti1      0.000141987277103d0     0.833358817897111d0     0.369279712898471d0
Ti1      0.500142903169988d0     0.813501044798196d0     0.496663466162777d0
Ti1      0.000103759743862d0     0.804362296459287d0     0.640934947811772d0
O1       0.698270105622955d0     0.833490734997188d0     0.369213011426276d0
O1       0.207727585512090d0     0.842508751848974d0     0.499102441670668d0
O1       0.690926433557363d0     0.839908030942653d0     0.636903552477424d0
Ti1      0.500123069656695d0     0.999931623165677d0     0.369269885789632d0
Ti1      0.000234235810399d0     0.977843355976651d0     0.498373412697388d0
Ti1      0.500020182639200d0     0.985310222052877d0     0.623467231681238d0
H1       0.999686366892655d0     0.445072175071815d0     0.753015094464822d0
N1       0.999776425873882d0     0.342673770993540d0     0.735283671472287d0
N1       0.000062198082516d0     0.333865817047810d0     0.684631780796127d0
H1       0.999666663469951d0     0.248349136020288d0     0.757807614848935d0
K_POINTS automatic
4 4 1  0 0 0 
