&CONTROL
  calculation='relax',
  prefix='calc',
  pseudo_dir='/storage/coda1/p-amedford6/0/shared/rich_project_chbe-medford/medford-share/data/pseudos_module/espresso/nninc/pbe/van',
  outdir='.',
  tefield=.true.,
  dipfield=.true.,
  tprnfor=.true.,
  disk_io='none',
/
&SYSTEM
  ibrav=0,
  celldm(1)=1.8897261245650618d0,
  nat=52,
  ntyp=4,
  ecutwfc=29.39945797996531d00,
  ecutrho=293.9945797996531d00,
  nbnd=205,
  occupations='smearing',
  smearing='fd',
  degauss=0.007349864494991328d00,
  input_dft='BEEF-vdW',
  edir=3,
  emaxpos=0.966253137553104d00,
  eopreg=0.025d00,
  eamp=0.0d00,
  nosym=.false.,
  noinv=.false.,
  nosym_evc=.false.,
  no_t_rev=.false.,
/
&ELECTRONS
  diagonalization='david',
  conv_thr=7.349864494991327e-08,
  mixing_beta=0.05d00,
  electron_maxstep=1000,
  startingpot='file',
  startingwfc='atomic',
/
&IONS
  ion_dynamics='ipi',
/
&CELL
  cell_dynamics='ipi',
/
CELL_PARAMETERS alat
    6.579727202290808d0     0.000000000000000d0     0.000000000000000d0
   -0.000775132442404d0     5.961596420607155d0     0.000000000000000d0
    0.000000000000000d0    -0.000000000000000d0    25.155947251439940d0
ATOMIC_SPECIES
Ti1 47.867d00 Ti.UPF
O1 15.999d00 O.UPF
H1 1.008d00 H.UPF
N1 14.007d00 N.UPF
ATOMIC_POSITIONS {crystal}
Ti1      0.000123603383822d0     0.499897385958536d0     0.238512187198856d0
Ti1      0.500142521004230d0     0.250038178055688d0     0.238522014307695d0
O1       0.000095322930372d0     0.000084774873452d0     0.317452257936818d0
O1       0.500112315057126d0     0.000084209992886d0     0.290342007718641d0
O1       0.698270105622955d0     0.250236102495782d0     0.369213011426276d0
O1       0.301995368073695d0     0.249987007385122d0     0.369214717028816d0
Ti1      0.500201354236192d0     0.486643207315874d0     0.364989392022340d0
Ti1      0.000256973987020d0     0.233701367654650d0     0.369422389765956d0
O1       0.498908633557852d0     0.998496771781651d0     0.451202531224810d0
O1       0.999737535096307d0     0.998823512087908d0     0.421723637004540d0
O1       0.195703140354682d0     0.248801880023743d0     0.502901718922398d0
O1       0.802207693791876d0     0.249243206898086d0     0.502628635742071d0
Ti1      0.996843923548027d0     0.494896703309479d0     0.508948171606063d0
Ti1      0.496951332469566d0     0.247133940401712d0     0.496680291950458d0
O1       0.995808031472756d0     0.997353646730312d0     0.583433468098079d0
O1       0.499826433815797d0     0.997745367706320d0     0.554727979959371d0
O1       0.686709206534750d0     0.249675825630144d0     0.640501290896714d0
O1       0.306854258516091d0     0.248849484493077d0     0.639945137574428d0
Ti1      0.498044218274490d0     0.496142945755075d0     0.624606278661290d0
Ti1      0.004139353575779d0     0.227799284485165d0     0.638525830498457d0
O1       0.500093721748991d0     0.000084921243389d0     0.186906639369252d0
O1       0.001224152627104d0     0.996951244691163d0     0.684678720088342d0
O1       0.198268504441574d0     0.250236248865719d0     0.238667392858710d0
O1       0.801993766892314d0     0.249987153755059d0     0.238669098461250d0
Ti1      0.000123603383822d0     0.999897385958536d0     0.238512187198856d0
Ti1      0.500142521004230d0     0.750038178055688d0     0.238522014307695d0
O1       0.000095322930372d0     0.500084774873452d0     0.317452257936818d0
O1       0.500112315057126d0     0.500084209992886d0     0.290342007718641d0
O1       0.698270105622955d0     0.750236102495782d0     0.369213011426276d0
O1       0.301995368073695d0     0.749987007385122d0     0.369214717028816d0
Ti1      0.500150434037856d0     0.986805168049162d0     0.364425208550987d0
Ti1      0.000231903919476d0     0.726669660628923d0     0.371995736208880d0
O1       0.498643737516097d0     0.497768668380086d0     0.451044178051764d0
O1       0.999977701010129d0     0.497219663963825d0     0.420392538663206d0
O1       0.195850852303472d0     0.749143487104903d0     0.502525151260920d0
O1       0.802109755727855d0     0.748398365741678d0     0.502192597129982d0
Ti1      0.997911963575107d0     0.995217501840786d0     0.499607207306112d0
Ti1      0.497128424488776d0     0.747027521913885d0     0.496420300631844d0
O1       0.997709737754862d0     0.501398814994149d0     0.584079670874722d0
O1       0.498778358643965d0     0.498489667210240d0     0.553586936550507d0
O1       0.687056486041619d0     0.743694844050620d0     0.640428097226496d0
O1       0.306630119963572d0     0.744089887716068d0     0.640687472073279d0
Ti1      0.503776174187849d0     0.996813272468972d0     0.625814718416678d0
Ti1      0.002731184234409d0     0.756521901346533d0     0.636039472490675d0
O1       0.500093721748991d0     0.500084921243389d0     0.186906639369252d0
O1       0.198268504441574d0     0.750236248865719d0     0.238667392858710d0
O1       0.801993766892315d0     0.749987153755059d0     0.238669098461250d0
H1       0.848280579179568d0     0.503118363611770d0     0.711030908355441d0
N1       0.990741559131462d0     0.499673445496185d0     0.695326367709329d0
N1       0.125734659084692d0     0.499455350809489d0     0.740488073368731d0
H1       0.184333278792637d0     0.341149957838794d0     0.745599635736956d0
H1       0.242690941287916d0     0.606099015587316d0     0.733035372116466d0
K_POINTS automatic
4 4 1  0 0 0 
