&CONTROL
  calculation='relax',
  prefix='calc',
  pseudo_dir='/storage/coda1/p-amedford6/0/shared/rich_project_chbe-medford/medford-share/data/pseudos_module/espresso/nninc/pbe/van',
  outdir='.',
  tefield=.true.,
  dipfield=.true.,
  tprnfor=.true.,
  disk_io='none',
/
&SYSTEM
  ibrav=0,
  celldm(1)=1.8897261245650618d0,
  nat=53,
  ntyp=5,
  ecutwfc=29.39945797996531d00,
  ecutrho=293.9945797996531d00,
  nbnd=205,
  occupations='smearing',
  smearing='fd',
  degauss=0.007349864494991328d00,
  input_dft='BEEF-vdW',
  edir=3,
  emaxpos=0.9818828727859941d00,
  eopreg=0.025d00,
  eamp=0.0d00,
  nosym=.false.,
  noinv=.false.,
  nosym_evc=.false.,
  no_t_rev=.false.,
/
&ELECTRONS
  diagonalization='david',
  conv_thr=7.349864494991327e-08,
  mixing_beta=0.05d00,
  electron_maxstep=1000,
  startingwfc='atomic',
/
&IONS
  ion_dynamics='ipi',
/
&CELL
  cell_dynamics='ipi',
/
CELL_PARAMETERS alat
    6.579727202290808d0     0.000000000000000d0     0.000000000000000d0
   -0.000775132442404d0     5.961596420607155d0     0.000000000000000d0
    0.000000000000000d0    -0.000000000000000d0    25.155947251439940d0
ATOMIC_SPECIES
Ti1 47.867d00 Ti.UPF
O1 15.999d00 O.UPF
H1 1.008d00 H.UPF
N1 14.007d00 N.UPF
C1 12.011d00 C.UPF
ATOMIC_POSITIONS {crystal}
Ti1      0.000123603383822d0     0.499897385958536d0     0.238512187198856d0
Ti1      0.500142521004230d0     0.250038178055688d0     0.238522014307695d0
O1       0.000095322930372d0     0.000084774873452d0     0.317452257936818d0
O1       0.500112315057126d0     0.000084209992886d0     0.290342007718641d0
O1       0.698270105622955d0     0.250236102495782d0     0.369213011426276d0
O1       0.301995368073695d0     0.249987007385122d0     0.369214717028816d0
Ti1      0.500198167309398d0     0.485761668506182d0     0.364758343030283d0
Ti1      0.000261424674789d0     0.248709163236136d0     0.368424970923767d0
O1       0.501071548984650d0     0.003943104848141d0     0.450527513149563d0
O1       0.001882992193933d0     0.999479849154423d0     0.422099495650131d0
O1       0.200844609562748d0     0.253909064020031d0     0.501716825872178d0
O1       0.805491232794497d0     0.252662613195242d0     0.501250002255008d0
Ti1      0.992762108388193d0     0.498476642130255d0     0.501662962052195d0
Ti1      0.489102141608501d0     0.255223709260621d0     0.496045845664390d0
O1       0.997638823757719d0     0.010987234329777d0     0.582677954740831d0
O1       0.503898633206548d0     0.007159784955890d0     0.553875260818482d0
O1       0.687224153580256d0     0.263747486722469d0     0.640547472431546d0
O1       0.309653363397455d0     0.262847682952230d0     0.638781335548564d0
Ti1      0.501956700441878d0     0.509362238758460d0     0.624081603360214d0
Ti1      0.008563901726206d0     0.267325964061997d0     0.631746945410885d0
O1       0.500093721748991d0     0.000084921243389d0     0.186906639369252d0
O1       0.002747088614244d0     0.011943637893868d0     0.684625025516343d0
O1       0.198268504441574d0     0.250236248865719d0     0.238667392858710d0
O1       0.801993766892314d0     0.249987153755059d0     0.238669098461250d0
Ti1      0.000123603383822d0     0.999897385958536d0     0.238512187198856d0
Ti1      0.500142521004230d0     0.750038178055688d0     0.238522014307695d0
O1       0.000095322930372d0     0.500084774873452d0     0.317452257936818d0
O1       0.500112315057126d0     0.500084209992886d0     0.290342007718641d0
O1       0.698270105622955d0     0.750236102495782d0     0.369213011426276d0
O1       0.301995368073695d0     0.749987007385122d0     0.369214717028816d0
Ti1      0.500001644927041d0     0.985370751416071d0     0.364779031055315d0
Ti1      0.000183276761494d0     0.748948988039575d0     0.368476322807288d0
O1       0.500435428147396d0     0.504868879180121d0     0.450430626010818d0
O1       0.001460782485842d0     0.499964783615161d0     0.422656139091726d0
O1       0.199890970256513d0     0.755802432735487d0     0.502487798303149d0
O1       0.806100634460027d0     0.754046875357344d0     0.502084983888896d0
Ti1      0.992352513939544d0     0.997429730233165d0     0.500367971176764d0
Ti1      0.488621527770399d0     0.755163288582387d0     0.496253445896110d0
O1       0.999156741647754d0     0.498728618218171d0     0.582643022198271d0
O1       0.503391865643732d0     0.505421544898250d0     0.552980086879652d0
O1       0.688814095252428d0     0.759015782783127d0     0.640140057758343d0
O1       0.311779477379857d0     0.760045252719275d0     0.639242765405119d0
Ti1      0.505652514818297d0     0.008871361591829d0     0.625234182403377d0
Ti1      0.004601970049163d0     0.789163975124637d0     0.640159406215943d0
O1       0.500093721748991d0     0.500084921243389d0     0.186906639369252d0
O1       0.198268504441574d0     0.750236248865719d0     0.238667392858710d0
O1       0.801993766892315d0     0.749987153755059d0     0.238669098461250d0
H1       0.854866820206808d0     0.499529953127521d0     0.709058855312746d0
N1       0.998063214628734d0     0.509439575617555d0     0.694424867683673d0
C1       0.138903843224718d0     0.524113245389940d0     0.739994982413643d0
H1       0.197711059390545d0     0.694318859614564d0     0.745093935185591d0
H1       0.061871408821645d0     0.477854981385623d0     0.776859106202736d0
H1       0.267494523612779d0     0.410912201179590d0     0.734898151126345d0
K_POINTS automatic
4 4 1  0 0 0 
