&CONTROL
  calculation='relax',
  prefix='calc',
  pseudo_dir='/storage/coda1/p-amedford6/0/shared/rich_project_chbe-medford/medford-share/data/pseudos_module/espresso/nninc/pbe/van',
  outdir='.',
  tefield=.true.,
  dipfield=.true.,
  tprnfor=.true.,
  disk_io='none',
/
&SYSTEM
  ibrav=0,
  celldm(1)=1.8897261245650618d0,
  nat=51,
  ntyp=4,
  ecutwfc=29.39945797996531d00,
  ecutrho=293.9945797996531d00,
  nbnd=205,
  occupations='smearing',
  smearing='fd',
  degauss=0.007349864494991328d00,
  input_dft='BEEF-vdW',
  edir=3,
  emaxpos=0.9668659102257045d00,
  eopreg=0.025d00,
  eamp=0.0d00,
  nosym=.false.,
  noinv=.false.,
  nosym_evc=.false.,
  no_t_rev=.false.,
/
&ELECTRONS
  diagonalization='david',
  conv_thr=7.349864494991327e-08,
  mixing_beta=0.05d00,
  electron_maxstep=1000,
  startingpot='file',
  startingwfc='atomic',
/
&IONS
  ion_dynamics='ipi',
/
&CELL
  cell_dynamics='ipi',
/
CELL_PARAMETERS alat
    6.579727202290808d0     0.000000000000000d0     0.000000000000000d0
   -0.000775132442404d0     5.961596420607155d0     0.000000000000000d0
    0.000000000000000d0    -0.000000000000000d0    25.155947251439940d0
ATOMIC_SPECIES
Ti1 47.867d00 Ti.UPF
O1 15.999d00 O.UPF
C1 12.011d00 C.UPF
H1 1.008d00 H.UPF
ATOMIC_POSITIONS {crystal}
Ti1      0.000123603383822d0     0.499897385958537d0     0.238512187198856d0
Ti1      0.500142521004230d0     0.250038178055688d0     0.238522014307695d0
O1       0.000095322930372d0     0.000084774873452d0     0.317452257936818d0
O1       0.500112315057126d0     0.000084209992886d0     0.290342007718641d0
O1       0.698270105622955d0     0.250236102495782d0     0.369213011426276d0
O1       0.301995368073695d0     0.249987007385122d0     0.369214717028816d0
Ti1      0.495164137546050d0     0.481611709214311d0     0.365874441742012d0
Ti1      0.993483557037081d0     0.241122069933122d0     0.371662595875063d0
O1       0.496413690187586d0     0.993369984839074d0     0.450031347133654d0
O1       0.001021706448161d0     0.998107761284154d0     0.420142612248889d0
O1       0.193200083813077d0     0.248775102349422d0     0.500980494146130d0
O1       0.804868349636450d0     0.244294438660457d0     0.501749097035331d0
Ti1      0.983491327124453d0     0.507126806169904d0     0.505033835570648d0
Ti1      0.501754699490094d0     0.214582435147818d0     0.503709060452904d0
O1       0.018484809008069d0     0.997044896329122d0     0.581112045704868d0
O1       0.500864634806462d0     0.009309936988250d0     0.554439684204475d0
O1       0.664357403818285d0     0.258616113909353d0     0.638934280234339d0
O1       0.264283462894410d0     0.349590222779456d0     0.653170549403606d0
Ti1      0.490991375144387d0     0.507748188868584d0     0.622400566078448d0
Ti1      0.957854891050584d0     0.246139659372922d0     0.630340454293936d0
O1       0.500093721748991d0     0.000084921243389d0     0.186906639369252d0
O1       0.967300608713018d0     0.998291497230426d0     0.680972259487584d0
O1       0.198268504441574d0     0.250236248865719d0     0.238667392858710d0
O1       0.801993766892314d0     0.249987153755059d0     0.238669098461250d0
Ti1      0.000123603383822d0     0.999897385958537d0     0.238512187198856d0
Ti1      0.500142521004230d0     0.750038178055688d0     0.238522014307695d0
O1       0.000095322930372d0     0.500084774873452d0     0.317452257936818d0
O1       0.500112315057126d0     0.500084209992886d0     0.290342007718641d0
O1       0.698270105622955d0     0.750236102495782d0     0.369213011426276d0
O1       0.301995368073695d0     0.749987007385122d0     0.369214717028816d0
Ti1      0.495221265655756d0     0.982461818147208d0     0.364699245170021d0
Ti1      0.993425969760249d0     0.739622289365601d0     0.371611434765586d0
O1       0.500700233382932d0     0.501134021198467d0     0.448808157702976d0
O1       0.996609971180201d0     0.498032741349576d0     0.419695766240271d0
O1       0.190918889024288d0     0.742849390612542d0     0.500907356511079d0
O1       0.800331746681685d0     0.746912781668553d0     0.501457191636647d0
Ti1      0.014992628843371d0     0.006710705293786d0     0.503106000805852d0
Ti1      0.496284382297416d0     0.734181119102553d0     0.493223083590557d0
O1       0.978181154725350d0     0.500621664569930d0     0.581650406963634d0
O1       0.489304293492549d0     0.497654740231224d0     0.552363210939189d0
O1       0.694098676704110d0     0.725387022796350d0     0.642216544489970d0
O1       0.318750753795849d0     0.777601750735867d0     0.638033685599016d0
Ti1      0.527980142242730d0     0.971941961832617d0     0.652320415195746d0
Ti1      0.010812476885220d0     0.761594852873517d0     0.638663991890923d0
O1       0.500093721748991d0     0.500084921243389d0     0.186906639369252d0
O1       0.198268504441574d0     0.750236248865719d0     0.238667392858710d0
O1       0.801993766892315d0     0.749987153755059d0     0.238669098461250d0
C1       0.104910373749030d0     0.459708390172726d0     0.681798116937333d0
H1       0.122119159506344d0     0.442319939514815d0     0.724764242963884d0
O1       0.507575292346703d0     0.992903973115240d0     0.724130933407731d0
H1       0.615502487776090d0     0.048086359851969d0     0.746825181082156d0
K_POINTS automatic
4 4 1  0 0 0 
