&CONTROL
  calculation='relax',
  prefix='calc',
  pseudo_dir='/storage/coda1/p-amedford6/0/shared/rich_project_chbe-medford/medford-share/data/pseudos_module/espresso/nninc/pbe/van',
  outdir='.',
  tefield=.true.,
  dipfield=.true.,
  tprnfor=.true.,
  disk_io='none',
/
&SYSTEM
  ibrav=0,
  celldm(1)=1.8897261245650618d0,
  nat=56,
  ntyp=5,
  ecutwfc=29.39945797996531d00,
  ecutrho=293.9945797996531d00,
  nbnd=209,
  occupations='smearing',
  smearing='fd',
  degauss=0.007349864494991328d00,
  nspin=2,
  starting_magnetization(1)=0.0d00,
  starting_magnetization(2)=0.0d00,
  starting_magnetization(3)=0.0d00,
  starting_magnetization(4)=0.025d00,
  starting_magnetization(5)=0.0d00,
  input_dft='BEEF-vdW',
  edir=3,
  emaxpos=0.04045092084568647d00,
  eopreg=0.025d00,
  eamp=0.0d00,
  nosym=.false.,
  noinv=.false.,
  nosym_evc=.false.,
  no_t_rev=.false.,
/
&ELECTRONS
  diagonalization='david',
  conv_thr=7.349864494991327e-08,
  mixing_beta=0.05d00,
  electron_maxstep=1000,
  startingpot='file',
  startingwfc='atomic',
/
&IONS
  ion_dynamics='ipi',
/
&CELL
  cell_dynamics='ipi',
/
CELL_PARAMETERS alat
    6.579727202290808d0     0.000000000000000d0     0.000000000000000d0
   -0.000775132442404d0     5.961596420607155d0     0.000000000000000d0
    0.000000000000000d0    -0.000000000000000d0    25.155947251439940d0
ATOMIC_SPECIES
Ti1 47.867d00 Ti.UPF
O1 15.999d00 O.UPF
N1 14.007d00 N.UPF
C1 12.011d00 C.UPF
H1 1.008d00 H.UPF
ATOMIC_POSITIONS {crystal}
Ti1      0.000123603383822d0     0.499897385958536d0     0.238512187198856d0
Ti1      0.500142521004230d0     0.250038178055688d0     0.238522014307695d0
O1       0.000095322930372d0     0.000084774873452d0     0.317452257936818d0
O1       0.500112315057126d0     0.000084209992886d0     0.290342007718641d0
O1       0.698270105622955d0     0.250236102495782d0     0.369213011426276d0
O1       0.301995368073695d0     0.249987007385122d0     0.369214717028816d0
Ti1      0.500198167309398d0     0.485761668506182d0     0.364758343030283d0
Ti1      0.000261424674789d0     0.248709163236136d0     0.368424970923767d0
O1       0.501947837119393d0     0.999708496344885d0     0.449033316200104d0
O1       0.001882992193933d0     0.999479849154423d0     0.422099495650131d0
O1       0.202875905856960d0     0.250178600191705d0     0.501453111131826d0
O1       0.807252174151706d0     0.249836155291630d0     0.502150591002060d0
Ti1      0.986713276576527d0     0.496629553464680d0     0.507164050684204d0
Ti1      0.483467760098301d0     0.248415692786229d0     0.495422817949991d0
O1       0.004065092233034d0     0.995162736319288d0     0.580175748991492d0
O1       0.504267831961935d0     0.001866824651280d0     0.551645134746381d0
O1       0.690791943542678d0     0.255877708203511d0     0.637723381402820d0
O1       0.318370321326044d0     0.255885429472134d0     0.637885314758077d0
Ti1      0.504265526325751d0     0.505204503579034d0     0.623527595931855d0
Ti1      0.004404298654995d0     0.270964421855549d0     0.639882404510854d0
O1       0.500093721748991d0     0.000084921243389d0     0.186906639369252d0
O1       0.004136195626430d0     0.008856470628416d0     0.684118479623952d0
O1       0.198268504441574d0     0.250236248865719d0     0.238667392858710d0
O1       0.801993766892314d0     0.249987153755059d0     0.238669098461250d0
Ti1      0.000123603383822d0     0.999897385958536d0     0.238512187198856d0
Ti1      0.500142521004230d0     0.750038178055688d0     0.238522014307695d0
O1       0.000095322930372d0     0.500084774873452d0     0.317452257936818d0
O1       0.500112315057126d0     0.500084209992886d0     0.290342007718641d0
O1       0.698270105622955d0     0.750236102495782d0     0.369213011426276d0
O1       0.301995368073695d0     0.749987007385122d0     0.369214717028816d0
Ti1      0.500001644927041d0     0.985370751416071d0     0.364779031055315d0
Ti1      0.000183276761494d0     0.748948988039575d0     0.368476322807288d0
O1       0.501714920353778d0     0.499770837342593d0     0.448991433601635d0
O1       0.001460782485842d0     0.499964783615161d0     0.422656139091726d0
O1       0.203245399626343d0     0.748994736529143d0     0.501359805380951d0
O1       0.807266056862883d0     0.747054365207827d0     0.502069132954242d0
Ti1      0.990663530315907d0     0.996279211668230d0     0.507548676444740d0
Ti1      0.483546248111053d0     0.748436390688030d0     0.495640244263065d0
O1       0.002216077179702d0     0.497463727168335d0     0.582498634500388d0
O1       0.503508028012322d0     0.502317367752653d0     0.551695659311622d0
O1       0.691146514908847d0     0.756167216441676d0     0.638220261898312d0
O1       0.317671489427884d0     0.756335085709621d0     0.638289407697203d0
Ti1      0.505333332744271d0     0.005646760393242d0     0.623626653378403d0
Ti1      0.004792170540926d0     0.770741494480975d0     0.641299124179043d0
O1       0.500093721748991d0     0.500084921243389d0     0.186906639369252d0
O1       0.198268504441574d0     0.750236248865719d0     0.238667392858710d0
O1       0.801993766892315d0     0.749987153755059d0     0.238669098461250d0
N1       0.007823974919494d0     0.504899602236897d0     0.688966014895995d0
C1       0.032732501931246d0     0.514280260161456d0     0.745921744478286d0
H1       0.928833083099203d0     0.636700556737171d0     0.763696567276035d0
H1       0.005986073246406d0     0.350909185198321d0     0.764340609219563d0
H1       0.186121862254804d0     0.568592541177198d0     0.756178556731117d0
N1       0.725249977071240d0     0.307708320716667d0     0.856355825800318d0
H1       0.679587843278189d0     0.469449070473805d0     0.852450347773892d0
H1       0.635922480799577d0     0.215090253883653d0     0.831840798440799d0
H1       0.690439629623030d0     0.260619748137798d0     0.893995202322120d0
K_POINTS automatic
4 4 1  0 0 0 
