&CONTROL
  calculation='relax',
  prefix='calc',
  pseudo_dir='/storage/coda1/p-amedford6/0/shared/rich_project_chbe-medford/medford-share/data/pseudos_module/espresso/nninc/pbe/van',
  outdir='.',
  tefield=.true.,
  dipfield=.true.,
  tprnfor=.true.,
  disk_io='none',
/
&SYSTEM
  ibrav=0,
  celldm(1)=1.8897261245650618d0,
  nat=55,
  ntyp=5,
  ecutwfc=29.39945797996531d00,
  ecutrho=293.9945797996531d00,
  nbnd=211,
  occupations='smearing',
  smearing='fd',
  degauss=0.007349864494991328d00,
  input_dft='BEEF-vdW',
  edir=3,
  emaxpos=0.9920943386961203d00,
  eopreg=0.025d00,
  eamp=0.0d00,
  nosym=.false.,
  noinv=.false.,
  nosym_evc=.false.,
  no_t_rev=.false.,
/
&ELECTRONS
  diagonalization='david',
  conv_thr=7.349864494991327e-08,
  mixing_beta=0.05d00,
  electron_maxstep=1000,
  startingwfc='atomic',
/
&IONS
  ion_dynamics='ipi',
/
&CELL
  cell_dynamics='ipi',
/
CELL_PARAMETERS alat
    6.579727202290808d0     0.000000000000000d0     0.000000000000000d0
   -0.000775132442404d0     5.961596420607155d0     0.000000000000000d0
    0.000000000000000d0    -0.000000000000000d0    25.155947251439940d0
ATOMIC_SPECIES
Ti1 47.867d00 Ti.UPF
O1 15.999d00 O.UPF
C1 12.011d00 C.UPF
H1 1.008d00 H.UPF
N1 14.007d00 N.UPF
ATOMIC_POSITIONS {crystal}
Ti1      0.000123603383822d0     0.499897385958537d0     0.238512187198856d0
Ti1      0.500142521004230d0     0.250038178055688d0     0.238522014307695d0
O1       0.000095322930372d0     0.000084774873452d0     0.317452257936818d0
O1       0.500112315057126d0     0.000084209992886d0     0.290342007718641d0
O1       0.698270105622955d0     0.250236102495782d0     0.369213011426276d0
O1       0.301995368073695d0     0.249987007385122d0     0.369214717028816d0
Ti1      0.503060624348112d0     0.497389609181111d0     0.363914782473371d0
Ti1      0.003967243707267d0     0.248222791513249d0     0.368110940358054d0
O1       0.496986012353322d0     0.002255619355290d0     0.453238182597169d0
O1       0.998990558740272d0     0.000646605501260d0     0.422669741691196d0
O1       0.191809158403406d0     0.250865893394467d0     0.505999924380544d0
O1       0.802106845606355d0     0.250638707801689d0     0.505831933036251d0
Ti1      0.995648180725624d0     0.498448851610235d0     0.496328977693020d0
Ti1      0.494260429957768d0     0.249619838099178d0     0.499220703695887d0
O1       0.995892649161153d0     0.980736877741375d0     0.586292358501355d0
O1       0.496383697520846d0     0.996795136335876d0     0.556963446083537d0
O1       0.686899432735284d0     0.254066877878975d0     0.641332902458263d0
O1       0.305461308962457d0     0.254034232396745d0     0.641328306257678d0
Ti1      0.495653774561833d0     0.504076004079988d0     0.628120152457736d0
Ti1      0.995676319813978d0     0.222317836400437d0     0.630113378565222d0
O1       0.500093721748991d0     0.000084921243389d0     0.186906639369252d0
O1       0.996254738351382d0     0.036745769127748d0     0.687653886328061d0
O1       0.198268504441574d0     0.250236248865719d0     0.238667392858710d0
O1       0.801993766892314d0     0.249987153755059d0     0.238669098461250d0
Ti1      0.000123603383822d0     0.999897385958537d0     0.238512187198856d0
Ti1      0.500142521004230d0     0.750038178055688d0     0.238522014307695d0
O1       0.000095322930372d0     0.500084774873452d0     0.317452257936818d0
O1       0.500112315057126d0     0.500084209992886d0     0.290342007718641d0
O1       0.698270105622955d0     0.750236102495782d0     0.369213011426276d0
O1       0.301995368073695d0     0.749987007385122d0     0.369214717028816d0
Ti1      0.502979510653943d0     0.997908414488951d0     0.363888545746682d0
Ti1      0.003818696537274d0     0.749732639381469d0     0.368016631961392d0
O1       0.497038185881638d0     0.498355951235167d0     0.453083947020385d0
O1       0.999017052914688d0     0.498587741084255d0     0.422828991024730d0
O1       0.192172284752809d0     0.748084885149124d0     0.503706944311031d0
O1       0.801382300813676d0     0.747958940718539d0     0.503474792222251d0
Ti1      0.994607655209742d0     0.996355417264697d0     0.497426196297814d0
Ti1      0.494262334387591d0     0.750171669484294d0     0.498732070103509d0
O1       0.996481899417477d0     0.513241038131696d0     0.599747891247186d0
O1       0.496383913620744d0     0.506314695872889d0     0.556938739691493d0
O1       0.686666074431366d0     0.754778383676169d0     0.646659028175413d0
O1       0.305940061329417d0     0.754837440284022d0     0.646675393546836d0
Ti1      0.495645553332589d0     0.004098392785764d0     0.628736803200906d0
Ti1      0.995471620108481d0     0.765582246804276d0     0.642582953804785d0
O1       0.500093721748991d0     0.500084921243389d0     0.186906639369252d0
O1       0.198268504441574d0     0.750236248865719d0     0.238667392858710d0
O1       0.801993766892315d0     0.749987153755059d0     0.238669098461250d0
C1       0.996179061953420d0     0.653629064535093d0     0.774551396633062d0
O1       0.996125170260779d0     0.547352667640545d0     0.722843912982855d0
H1       0.993057600105170d0     0.833007136772653d0     0.767213367022315d0
H1       0.997442757854092d0     0.384761196698416d0     0.727180792276459d0
H1       0.862863750684356d0     0.603534169890228d0     0.797282038022988d0
H1       0.133099877464922d0     0.609417768686441d0     0.796618814823588d0
N1       0.496029562921010d0     0.424861119483521d0     0.797130024757235d0
N1       0.495549847238222d0     0.450153461991730d0     0.753685203236814d0
K_POINTS automatic
4 4 1  0 0 0 
