&CONTROL
  calculation='relax',
  prefix='calc',
  pseudo_dir='/storage/coda1/p-amedford6/0/shared/rich_project_chbe-medford/medford-share/data/pseudos_module/espresso/nninc/pbe/van',
  outdir='.',
  tefield=.true.,
  dipfield=.true.,
  tprnfor=.true.,
  disk_io='none',
/
&SYSTEM
  ibrav=0,
  celldm(1)=1.8897261245650618d0,
  nat=55,
  ntyp=5,
  ecutwfc=29.39945797996531d00,
  ecutrho=293.9945797996531d00,
  nbnd=211,
  occupations='smearing',
  smearing='fd',
  degauss=0.007349864494991328d00,
  input_dft='BEEF-vdW',
  edir=3,
  emaxpos=0.0004924367670564589d00,
  eopreg=0.025d00,
  eamp=0.0d00,
  nosym=.false.,
  noinv=.false.,
  nosym_evc=.false.,
  no_t_rev=.false.,
/
&ELECTRONS
  diagonalization='david',
  conv_thr=7.349864494991327e-08,
  mixing_beta=0.05d00,
  electron_maxstep=1000,
  startingwfc='atomic',
/
&IONS
  ion_dynamics='ipi',
/
&CELL
  cell_dynamics='ipi',
/
CELL_PARAMETERS alat
    6.579727202290808d0     0.000000000000000d0     0.000000000000000d0
   -0.000775132442404d0     5.961596420607155d0     0.000000000000000d0
    0.000000000000000d0    -0.000000000000000d0    25.155947251439940d0
ATOMIC_SPECIES
Ti1 47.867d00 Ti.UPF
O1 15.999d00 O.UPF
C1 12.011d00 C.UPF
H1 1.008d00 H.UPF
N1 14.007d00 N.UPF
ATOMIC_POSITIONS {crystal}
Ti1      0.000123603383822d0     0.499897385958537d0     0.238512187198856d0
Ti1      0.500142521004230d0     0.250038178055688d0     0.238522014307695d0
O1       0.000095322930372d0     0.000084774873452d0     0.317452257936818d0
O1       0.500112315057126d0     0.000084209992886d0     0.290342007718641d0
O1       0.698270105622955d0     0.250236102495782d0     0.369213011426276d0
O1       0.301995368073695d0     0.249987007385122d0     0.369214717028816d0
Ti1      0.493028046038781d0     0.497372076695138d0     0.364117795731295d0
Ti1      0.991633870141409d0     0.253155855697617d0     0.367626936131273d0
O1       0.499675913085402d0     0.012165583402270d0     0.450730575982962d0
O1       0.000852350274992d0     0.003535176894982d0     0.420453008090938d0
O1       0.195735056501494d0     0.265490776294117d0     0.500910903469838d0
O1       0.804427619001109d0     0.265628025429384d0     0.500627864134144d0
Ti1      0.998593008930737d0     0.512348181047329d0     0.496256186571369d0
Ti1      0.501720368987592d0     0.264546338124369d0     0.495682495099909d0
O1       0.997481585593604d0     0.024496664959859d0     0.580135677112748d0
O1       0.499781145838720d0     0.020785994798060d0     0.554732516971771d0
O1       0.692022399501579d0     0.277382597717188d0     0.640224824979927d0
O1       0.303721914030834d0     0.277091955418168d0     0.639889939423331d0
Ti1      0.499361184658708d0     0.522371946210696d0     0.624668021468361d0
Ti1      0.999761342792771d0     0.253639359355970d0     0.629425991940721d0
O1       0.500093721748991d0     0.000084921243389d0     0.186906639369252d0
O1       0.995049654069503d0     0.026567509179902d0     0.680149363894432d0
O1       0.198268504441574d0     0.250236248865719d0     0.238667392858710d0
O1       0.801993766892314d0     0.249987153755059d0     0.238669098461250d0
Ti1      0.000123603383822d0     0.999897385958537d0     0.238512187198856d0
Ti1      0.500142521004230d0     0.750038178055688d0     0.238522014307695d0
O1       0.000095322930372d0     0.500084774873452d0     0.317452257936818d0
O1       0.500112315057126d0     0.500084209992886d0     0.290342007718641d0
O1       0.698270105622955d0     0.750236102495782d0     0.369213011426276d0
O1       0.301995368073695d0     0.749987007385122d0     0.369214717028816d0
Ti1      0.494740428619753d0     0.996912776283688d0     0.363879257011156d0
Ti1      0.991632076540422d0     0.752145651130431d0     0.367725065339070d0
O1       0.499034777214024d0     0.515550310244513d0     0.450836571227827d0
O1       0.000076348832002d0     0.506206593773932d0     0.421557216685838d0
O1       0.195508966118217d0     0.764842695776166d0     0.502330861171870d0
O1       0.804739590071090d0     0.764799875826574d0     0.501729095569532d0
Ti1      0.003172224401293d0     0.011566390801185d0     0.494375359974938d0
Ti1      0.501859606014801d0     0.761911036413850d0     0.496890295213941d0
O1       0.998711554713167d0     0.524024685191202d0     0.591106804011622d0
O1       0.501408917158689d0     0.516979772032757d0     0.553450048530586d0
O1       0.690933909220701d0     0.771079956463103d0     0.640262111441013d0
O1       0.305836457359919d0     0.772820678780076d0     0.639701319474656d0
Ti1      0.496574133970578d0     0.023737819820741d0     0.626012070558779d0
Ti1      0.997607822824837d0     0.800465804814977d0     0.630109005276141d0
O1       0.500093721748991d0     0.500084921243389d0     0.186906639369252d0
O1       0.198268504441574d0     0.750236248865719d0     0.238667392858710d0
O1       0.801993766892315d0     0.749987153755059d0     0.238669098461250d0
C1       0.884364142379730d0     0.371835254130647d0     0.779245573695433d0
O1       0.721198537429535d0     0.217294470161093d0     0.771584089082337d0
H1       0.831143344165246d0     0.502276497866893d0     0.806143488686973d0
H1       0.768506359661190d0     0.111724728685716d0     0.745014903593894d0
H1       0.019802425770791d0     0.292399186926601d0     0.796400477325949d0
H1       0.929657786676769d0     0.454097530423517d0     0.741563157730755d0
N1       0.237205212896524d0     0.901205642244271d0     0.814078234164860d0
N1       0.204758774027753d0     0.790211355802049d0     0.780093653129466d0
K_POINTS automatic
4 4 1  0 0 0 
