 N  O 
 1.0000000000000000
     7.1312180000000005    0.0000000000000000    0.0000000000000000
     0.0000000000000000    7.1312180000000005    0.0000000000000000
     0.0000000000000000    0.0000000000000000    7.1312180000000005
   2   1
Cartesian
  3.5656090000000003  3.5656090000000003  2.3336399999999999
  3.5656090000000003  3.5656090000000003  3.5047580000000003
  3.5656090000000003  3.5656090000000003  4.6968270000000008
