&CONTROL
  calculation='relax',
  prefix='calc',
  pseudo_dir='/storage/coda1/p-amedford6/0/shared/rich_project_chbe-medford/medford-share/data/pseudos_module/espresso/nninc/pbe/van',
  outdir='.',
  tefield=.true.,
  dipfield=.true.,
  tprnfor=.true.,
  disk_io='none',
/
&SYSTEM
  ibrav=0,
  celldm(1)=1.8897261245650618d0,
  nat=53,
  ntyp=4,
  ecutwfc=29.39945797996531d00,
  ecutrho=293.9945797996531d00,
  nbnd=206,
  occupations='smearing',
  smearing='fd',
  degauss=0.007349864494991328d00,
  input_dft='BEEF-vdW',
  edir=3,
  emaxpos=0.9824790856206485d00,
  eopreg=0.025d00,
  eamp=0.0d00,
  nosym=.false.,
  noinv=.false.,
  nosym_evc=.false.,
  no_t_rev=.false.,
/
&ELECTRONS
  diagonalization='david',
  conv_thr=7.349864494991327e-08,
  mixing_beta=0.05d00,
  electron_maxstep=1000,
  startingwfc='atomic',
/
&IONS
  ion_dynamics='ipi',
/
&CELL
  cell_dynamics='ipi',
/
CELL_PARAMETERS alat
    6.579727202290808d0     0.000000000000000d0     0.000000000000000d0
   -0.000775132442404d0     5.961596420607155d0     0.000000000000000d0
    0.000000000000000d0    -0.000000000000000d0    25.155947251439940d0
ATOMIC_SPECIES
Ti1 47.867d00 Ti.UPF
O1 15.999d00 O.UPF
C1 12.011d00 C.UPF
H1 1.008d00 H.UPF
ATOMIC_POSITIONS {crystal}
Ti1      0.000123603383822d0     0.499897385958537d0     0.238512187198856d0
Ti1      0.500142521004230d0     0.250038178055688d0     0.238522014307695d0
O1       0.000095322930372d0     0.000084774873452d0     0.317452257936818d0
O1       0.500112315057126d0     0.000084209992886d0     0.290342007718641d0
O1       0.698270105622955d0     0.250236102495782d0     0.369213011426276d0
O1       0.301995368073695d0     0.249987007385122d0     0.369214717028816d0
Ti1      0.502357860797182d0     0.498776080123162d0     0.363924607103964d0
Ti1      0.005382076329765d0     0.244413770579650d0     0.368477272373467d0
O1       0.496055338341680d0     0.999238309269559d0     0.452505410327597d0
O1       0.999302057542030d0     0.999339902065148d0     0.421887343957609d0
O1       0.191170302048841d0     0.248858190538992d0     0.503632365720491d0
O1       0.798802621063155d0     0.249482170294920d0     0.503092569917927d0
Ti1      0.996610349371091d0     0.498190705841546d0     0.498523679787342d0
Ti1      0.501322023656885d0     0.249253003893883d0     0.497695046582221d0
O1       0.992683557277329d0     0.999037874401698d0     0.584393016336494d0
O1       0.497110356104263d0     0.999403829919326d0     0.557196168312446d0
O1       0.677776760671325d0     0.253369852496735d0     0.644630327023626d0
O1       0.295671281148161d0     0.249881192343710d0     0.643897496442840d0
Ti1      0.484481505116016d0     0.497914707729262d0     0.625901126204063d0
Ti1      0.995566668417633d0     0.231562207421046d0     0.633783617726662d0
O1       0.500093721748991d0     0.000084921243389d0     0.186906639369252d0
O1       0.985306873611777d0     0.997487854473728d0     0.684817292542380d0
O1       0.198268504441574d0     0.250236248865719d0     0.238667392858710d0
O1       0.801993766892314d0     0.249987153755059d0     0.238669098461250d0
Ti1      0.000123603383822d0     0.999897385958537d0     0.238512187198856d0
Ti1      0.500142521004230d0     0.750038178055688d0     0.238522014307695d0
O1       0.000095322930372d0     0.500084774873452d0     0.317452257936818d0
O1       0.500112315057126d0     0.500084209992886d0     0.290342007718641d0
O1       0.698270105622955d0     0.750236102495782d0     0.369213011426276d0
O1       0.301995368073695d0     0.749987007385122d0     0.369214717028816d0
Ti1      0.504625988480330d0     0.998593623217072d0     0.363933534658972d0
Ti1      0.005311854964644d0     0.742432994884551d0     0.368330853953371d0
O1       0.496731965171708d0     0.499471433329527d0     0.452193864770900d0
O1       0.999056373590459d0     0.499768946946554d0     0.422914790620434d0
O1       0.190768533671900d0     0.749411226081156d0     0.503889688015764d0
O1       0.799093690229275d0     0.748722439344636d0     0.503329851759490d0
Ti1      0.001600655284185d0     0.999048238482729d0     0.496566963017306d0
Ti1      0.501243150036930d0     0.748767617424497d0     0.497822711522636d0
O1       0.987957578842991d0     0.496880529485107d0     0.592118250817441d0
O1       0.491134315858412d0     0.499190983562008d0     0.555131940081871d0
O1       0.677622625035147d0     0.741057297782494d0     0.644986608502509d0
O1       0.296121761501762d0     0.745071350051778d0     0.643686099559639d0
Ti1      0.495970977127967d0     0.998017481626841d0     0.628707390665868d0
Ti1      0.996712688250132d0     0.770824228584417d0     0.635117539459965d0
O1       0.500093721748991d0     0.500084921243389d0     0.186906639369252d0
O1       0.198268504441574d0     0.750236248865719d0     0.238667392858710d0
O1       0.801993766892315d0     0.749987153755059d0     0.238669098461250d0
C1       0.030502444189100d0     0.492081789421592d0     0.757077677540499d0
O1       0.957267225020572d0     0.498511020139503d0     0.702865732884023d0
H1       0.195262432789738d0     0.491436101311908d0     0.754995655173955d0
H1       0.808772498805788d0     0.505230544878157d0     0.702650119862564d0
H1       0.978322379195514d0     0.641310323538611d0     0.778051531872044d0
H1       0.976777103855970d0     0.338943849133460d0     0.776157954088038d0
K_POINTS automatic
4 4 1  0 0 0 
