&CONTROL
  calculation='relax',
  prefix='calc',
  pseudo_dir='/storage/coda1/p-amedford6/0/shared/rich_project_chbe-medford/medford-share/data/pseudos_module/espresso/nninc/pbe/van',
  outdir='.',
  tefield=.true.,
  dipfield=.true.,
  tprnfor=.true.,
  disk_io='none',
/
&SYSTEM
  ibrav=0,
  celldm(1)=1.8897261245650618d0,
  nat=55,
  ntyp=5,
  ecutwfc=29.39945797996531d00,
  ecutrho=293.9945797996531d00,
  nbnd=211,
  occupations='smearing',
  smearing='fd',
  degauss=0.007349864494991328d00,
  input_dft='BEEF-vdW',
  edir=3,
  emaxpos=0.9921608268789057d00,
  eopreg=0.025d00,
  eamp=0.0d00,
  nosym=.false.,
  noinv=.false.,
  nosym_evc=.false.,
  no_t_rev=.false.,
/
&ELECTRONS
  diagonalization='david',
  conv_thr=7.349864494991327e-08,
  mixing_beta=0.05d00,
  electron_maxstep=1000,
  startingwfc='atomic',
/
&IONS
  ion_dynamics='ipi',
/
&CELL
  cell_dynamics='ipi',
/
CELL_PARAMETERS alat
    6.579727202290808d0     0.000000000000000d0     0.000000000000000d0
   -0.000775132442404d0     5.961596420607155d0     0.000000000000000d0
    0.000000000000000d0    -0.000000000000000d0    25.155947251439940d0
ATOMIC_SPECIES
Ti1 47.867d00 Ti.UPF
O1 15.999d00 O.UPF
C1 12.011d00 C.UPF
H1 1.008d00 H.UPF
N1 14.007d00 N.UPF
ATOMIC_POSITIONS {crystal}
Ti1      0.000123603383822d0     0.499897385958537d0     0.238512187198856d0
Ti1      0.500142521004230d0     0.250038178055688d0     0.238522014307695d0
O1       0.000095322930372d0     0.000084774873452d0     0.317452257936818d0
O1       0.500112315057126d0     0.000084209992886d0     0.290342007718641d0
O1       0.698270105622955d0     0.250236102495782d0     0.369213011426276d0
O1       0.301995368073695d0     0.249987007385122d0     0.369214717028816d0
Ti1      0.503768757620498d0     0.500923051145624d0     0.364002344060823d0
Ti1      0.004797306782492d0     0.249353443084432d0     0.367811289496514d0
O1       0.498170697953912d0     0.998665519435941d0     0.453016819162333d0
O1       0.999796082217695d0     0.999364249578919d0     0.421864299124385d0
O1       0.193104056640135d0     0.249373949155145d0     0.503847704511985d0
O1       0.803374338276224d0     0.249247926976706d0     0.503410681743006d0
Ti1      0.996757088469808d0     0.497169921118569d0     0.496062664956301d0
Ti1      0.495721550479881d0     0.248841265862219d0     0.498686050613526d0
O1       0.995247673050969d0     0.997493197547778d0     0.583720815047513d0
O1       0.498030526817062d0     0.996785945708973d0     0.557136851256921d0
O1       0.688684427123889d0     0.247831558191161d0     0.642776556849749d0
O1       0.303434993995178d0     0.248050064484581d0     0.642851583239421d0
Ti1      0.496232719542740d0     0.495992850417574d0     0.628007882397005d0
Ti1      0.995155887659113d0     0.223695918384474d0     0.633813361298289d0
O1       0.500093721748991d0     0.000084921243389d0     0.186906639369252d0
O1       0.995687161160672d0     0.999620101648105d0     0.684877196271824d0
O1       0.198268504441574d0     0.250236248865719d0     0.238667392858710d0
O1       0.801993766892314d0     0.249987153755059d0     0.238669098461250d0
Ti1      0.000123603383822d0     0.999897385958537d0     0.238512187198856d0
Ti1      0.500142521004230d0     0.750038178055688d0     0.238522014307695d0
O1       0.000095322930372d0     0.500084774873452d0     0.317452257936818d0
O1       0.500112315057126d0     0.500084209992886d0     0.290342007718641d0
O1       0.698270105622955d0     0.750236102495782d0     0.369213011426276d0
O1       0.301995368073695d0     0.749987007385122d0     0.369214717028816d0
Ti1      0.503447091404323d0     0.001159282708981d0     0.363993357494143d0
Ti1      0.004843829333848d0     0.750107588165767d0     0.367736507433485d0
O1       0.498201496139892d0     0.498538053698016d0     0.452757297302425d0
O1       0.999631692214445d0     0.499323554096338d0     0.422374142912725d0
O1       0.193212757945566d0     0.746994655090848d0     0.503714648536325d0
O1       0.803204551000866d0     0.747000416802257d0     0.503322389812493d0
Ti1      0.996548106544113d0     0.997477604047885d0     0.495960540916396d0
Ti1      0.495712839647926d0     0.749001536977122d0     0.498563583782825d0
O1       0.995591410194108d0     0.498128784571162d0     0.597061952020485d0
O1       0.498454407092025d0     0.497748514227369d0     0.556590228776203d0
O1       0.688392322057408d0     0.745455755063864d0     0.643645758595554d0
O1       0.302679670943028d0     0.745685027879211d0     0.642718599221328d0
Ti1      0.495714610067278d0     0.995821861871053d0     0.628934460951504d0
Ti1      0.995113489754537d0     0.770868780677031d0     0.633461678663504d0
O1       0.500093721748991d0     0.500084921243389d0     0.186906639369252d0
O1       0.198268504441574d0     0.750236248865719d0     0.238667392858710d0
O1       0.801993766892315d0     0.749987153755059d0     0.238669098461250d0
C1       0.039331701281062d0     0.597837132674162d0     0.774020044643350d0
O1       0.162274710700927d0     0.792894098403400d0     0.775975210228820d0
H1       0.117346471617539d0     0.465942121626883d0     0.795872530800003d0
H1       0.107129465094349d0     0.899410692928802d0     0.750140900005471d0
H1       0.888119461441128d0     0.622832821703728d0     0.791004867204921d0
H1       0.017865313217527d0     0.535332858748162d0     0.732861859417198d0
N1       0.518808618234126d0     0.335993354548178d0     0.797415014388559d0
N1       0.519472393968121d0     0.410091327215885d0     0.757127342765055d0
K_POINTS automatic
4 4 1  0 0 0 
