&CONTROL
  calculation='relax',
  prefix='calc',
  pseudo_dir='/storage/coda1/p-amedford6/0/shared/rich_project_chbe-medford/medford-share/data/pseudos_module/espresso/nninc/pbe/van',
  outdir='.',
  tefield=.true.,
  dipfield=.true.,
  tprnfor=.true.,
  disk_io='none',
/
&SYSTEM
  ibrav=0,
  celldm(1)=1.8897261245650618d0,
  nat=55,
  ntyp=5,
  ecutwfc=29.39945797996531d00,
  ecutrho=293.9945797996531d00,
  nbnd=211,
  occupations='smearing',
  smearing='fd',
  degauss=0.007349864494991328d00,
  input_dft='BEEF-vdW',
  edir=3,
  emaxpos=0.9892012010755085d00,
  eopreg=0.025d00,
  eamp=0.0d00,
  nosym=.false.,
  noinv=.false.,
  nosym_evc=.false.,
  no_t_rev=.false.,
/
&ELECTRONS
  diagonalization='david',
  conv_thr=7.349864494991327e-08,
  mixing_beta=0.05d00,
  electron_maxstep=1000,
  startingwfc='atomic',
/
&IONS
  ion_dynamics='ipi',
/
&CELL
  cell_dynamics='ipi',
/
CELL_PARAMETERS alat
    6.579727202290808d0     0.000000000000000d0     0.000000000000000d0
   -0.000775132442404d0     5.961596420607155d0     0.000000000000000d0
    0.000000000000000d0    -0.000000000000000d0    25.155947251439940d0
ATOMIC_SPECIES
Ti1 47.867d00 Ti.UPF
O1 15.999d00 O.UPF
C1 12.011d00 C.UPF
H1 1.008d00 H.UPF
N1 14.007d00 N.UPF
ATOMIC_POSITIONS {crystal}
Ti1      0.000123603383822d0     0.499897385958537d0     0.238512187198856d0
Ti1      0.500142521004230d0     0.250038178055688d0     0.238522014307695d0
O1       0.000095322930372d0     0.000084774873452d0     0.317452257936818d0
O1       0.500112315057126d0     0.000084209992886d0     0.290342007718641d0
O1       0.698270105622955d0     0.250236102495782d0     0.369213011426276d0
O1       0.301995368073695d0     0.249987007385122d0     0.369214717028816d0
Ti1      0.506245728625466d0     0.496288740729899d0     0.363776764252487d0
Ti1      0.007393202351428d0     0.249775958823293d0     0.367617486976787d0
O1       0.501052633507946d0     0.000491726881998d0     0.450431786897279d0
O1       0.000902402935472d0     0.001312721431464d0     0.421055119645962d0
O1       0.198072239211753d0     0.249648171988111d0     0.503086367794682d0
O1       0.807207554004741d0     0.248238439726652d0     0.503736534680314d0
Ti1      0.000966250959460d0     0.498599856394968d0     0.495481531104191d0
Ti1      0.497703350224101d0     0.247161060499107d0     0.496616356681998d0
O1       0.007301560090946d0     0.978136252788200d0     0.582138488137540d0
O1       0.501722444545894d0     0.992766088646862d0     0.553552080014883d0
O1       0.694477982266000d0     0.250983403071330d0     0.636006419700729d0
O1       0.314044535566522d0     0.254408538058388d0     0.637222334085208d0
Ti1      0.505422229676406d0     0.501757077140457d0     0.623961767047460d0
Ti1      0.001606903664027d0     0.220639527519364d0     0.625308027164802d0
O1       0.500093721748991d0     0.000084921243389d0     0.186906639369252d0
O1       0.006562659644431d0     0.034309678370298d0     0.682733061225437d0
O1       0.198268504441574d0     0.250236248865719d0     0.238667392858710d0
O1       0.801993766892314d0     0.249987153755059d0     0.238669098461250d0
Ti1      0.000123603383822d0     0.999897385958537d0     0.238512187198856d0
Ti1      0.500142521004230d0     0.750038178055688d0     0.238522014307695d0
O1       0.000095322930372d0     0.500084774873452d0     0.317452257936818d0
O1       0.500112315057126d0     0.500084209992886d0     0.290342007718641d0
O1       0.698270105622955d0     0.750236102495782d0     0.369213011426276d0
O1       0.301995368073695d0     0.749987007385122d0     0.369214717028816d0
Ti1      0.504986869607943d0     0.996868471654318d0     0.363882946264344d0
Ti1      0.007232454863216d0     0.750415852811314d0     0.367624823538500d0
O1       0.501539416493608d0     0.495248774910198d0     0.450147883751238d0
O1       0.000849670824395d0     0.497376879628296d0     0.421360883417126d0
O1       0.198535777900408d0     0.745403998510785d0     0.500236714786667d0
O1       0.806367876331864d0     0.746818665060004d0     0.500517452122974d0
Ti1      0.996994123962382d0     0.995863000990850d0     0.495674612402660d0
Ti1      0.497598542975257d0     0.747379982355251d0     0.495288810530235d0
O1       0.002661399562409d0     0.511668033603540d0     0.594454185029202d0
O1       0.503848536008423d0     0.504373715132383d0     0.552914474224856d0
O1       0.695443600890104d0     0.753127041655994d0     0.643066590729197d0
O1       0.313227996571582d0     0.751288689031387d0     0.642439394145386d0
Ti1      0.502996060485095d0     0.000015320207879d0     0.624774222054457d0
Ti1      0.007953391140845d0     0.762952099105887d0     0.638445915110445d0
O1       0.500093721748991d0     0.500084921243389d0     0.186906639369252d0
O1       0.198268504441574d0     0.750236248865719d0     0.238667392858710d0
O1       0.801993766892315d0     0.749987153755059d0     0.238669098461250d0
C1       0.011231584689789d0     0.638023801515874d0     0.769444478305126d0
O1       0.015764071233654d0     0.543114823243333d0     0.716529158061764d0
H1       0.012152636923674d0     0.818646958887390d0     0.764664591611953d0
H1       0.044783042017059d0     0.383527304749127d0     0.719284480728887d0
H1       0.873444360673934d0     0.585652782519185d0     0.790323072132749d0
H1       0.145482554431546d0     0.584401155228709d0     0.791495762781764d0
N1       0.617325240271494d0     0.203492062588551d0     0.781515735662832d0
N1       0.531812803179147d0     0.321193346009557d0     0.756232130425845d0
K_POINTS automatic
4 4 1  0 0 0 
