&CONTROL
  calculation='relax',
  prefix='calc',
  pseudo_dir='/storage/coda1/p-amedford6/0/shared/rich_project_chbe-medford/medford-share/data/pseudos_module/espresso/nninc/pbe/van',
  outdir='.',
  tefield=.true.,
  dipfield=.true.,
  tprnfor=.true.,
  disk_io='none',
/
&SYSTEM
  ibrav=0,
  celldm(1)=1.8897261245650618d0,
  nat=54,
  ntyp=4,
  ecutwfc=29.39945797996531d00,
  ecutrho=293.9945797996531d00,
  nbnd=206,
  occupations='smearing',
  smearing='fd',
  degauss=0.007349864494991328d00,
  input_dft='BEEF-vdW',
  edir=3,
  emaxpos=0.9613169011169398d00,
  eopreg=0.025d00,
  eamp=0.0d00,
  nosym=.false.,
  noinv=.false.,
  nosym_evc=.false.,
  no_t_rev=.false.,
/
&ELECTRONS
  diagonalization='david',
  conv_thr=7.349864494991327e-08,
  mixing_beta=0.05d00,
  electron_maxstep=1000,
  startingpot='file',
  startingwfc='atomic',
/
&IONS
  ion_dynamics='ipi',
/
&CELL
  cell_dynamics='ipi',
/
CELL_PARAMETERS alat
    6.579727202290808d0     0.000000000000000d0     0.000000000000000d0
   -0.000775132442404d0     5.961596420607155d0     0.000000000000000d0
    0.000000000000000d0    -0.000000000000000d0    25.155947251439940d0
ATOMIC_SPECIES
Ti1 47.867d00 Ti.UPF
O1 15.999d00 O.UPF
C1 12.011d00 C.UPF
H1 1.008d00 H.UPF
ATOMIC_POSITIONS {crystal}
Ti1      0.000123603383822d0     0.499897385958537d0     0.238512187198856d0
Ti1      0.500142521004230d0     0.250038178055688d0     0.238522014307695d0
O1       0.000095322930372d0     0.000084774873452d0     0.317452257936818d0
O1       0.500112315057126d0     0.000084209992886d0     0.290342007718641d0
O1       0.698270105622955d0     0.250236102495782d0     0.369213011426276d0
O1       0.301995368073695d0     0.249987007385122d0     0.369214717028816d0
Ti1      0.503953073912189d0     0.493596570842435d0     0.364251181230473d0
Ti1      0.004369472733581d0     0.269648284201972d0     0.372308905741400d0
O1       0.498730516475992d0     0.002699050652470d0     0.451367703818664d0
O1       0.000377159306664d0     0.001783182203668d0     0.421401499366838d0
O1       0.193434282515626d0     0.252684640076272d0     0.502679682077142d0
O1       0.801782642614603d0     0.254132897931002d0     0.502267465615759d0
Ti1      0.004383488830653d0     0.495479010598968d0     0.508171430425020d0
Ti1      0.507468031336979d0     0.249854291555366d0     0.497229060878459d0
O1       0.996018040335792d0     0.002430089541525d0     0.581995485552379d0
O1       0.498217777318457d0     0.004786209014813d0     0.555267088444357d0
O1       0.689516665135584d0     0.263404074864323d0     0.638252111498297d0
O1       0.304183684832891d0     0.262494791931024d0     0.637958772406640d0
Ti1      0.495594533226773d0     0.507496302188530d0     0.624012561544576d0
Ti1      0.992984940848337d0     0.255464766236260d0     0.642368054188815d0
O1       0.500093721748991d0     0.000084921243389d0     0.186906639369252d0
O1       0.996622109924198d0     0.005873174742104d0     0.683226337078006d0
O1       0.198268504441574d0     0.250236248865719d0     0.238667392858710d0
O1       0.801993766892314d0     0.249987153755059d0     0.238669098461250d0
Ti1      0.000123603383822d0     0.999897385958537d0     0.238512187198856d0
Ti1      0.500142521004230d0     0.750038178055688d0     0.238522014307695d0
O1       0.000095322930372d0     0.500084774873452d0     0.317452257936818d0
O1       0.500112315057126d0     0.500084209992886d0     0.290342007718641d0
O1       0.698270105622955d0     0.750236102495782d0     0.369213011426276d0
O1       0.301995368073695d0     0.749987007385122d0     0.369214717028816d0
Ti1      0.502925245964622d0     0.994186901335061d0     0.363882651460711d0
Ti1      0.004707290939918d0     0.760905131561535d0     0.368152007690351d0
O1       0.499188304263888d0     0.501533745854371d0     0.451406097574708d0
O1       0.000650895991143d0     0.501962439046838d0     0.420727779045403d0
O1       0.193506895511921d0     0.751852387171915d0     0.502442396935814d0
O1       0.801589901040505d0     0.752556969571767d0     0.502080953452998d0
Ti1      0.004678969234229d0     0.995710646669866d0     0.497624159404725d0
Ti1      0.507366713663749d0     0.751673760491983d0     0.496652291769276d0
O1       0.997889886822995d0     0.505509711617986d0     0.585249546450486d0
O1       0.497147734585146d0     0.505145908744123d0     0.553016826400759d0
O1       0.689006851464287d0     0.752844268542168d0     0.639023689511684d0
O1       0.304038283620729d0     0.753510484029564d0     0.638845747765798d0
Ti1      0.493979804181275d0     0.008711142545142d0     0.628016502761915d0
Ti1      0.994172462535881d0     0.779174032548766d0     0.629841710936230d0
O1       0.500093721748991d0     0.500084921243389d0     0.186906639369252d0
O1       0.198268504441574d0     0.750236248865719d0     0.238667392858710d0
O1       0.801993766892315d0     0.749987153755059d0     0.238669098461250d0
C1       0.997361884153822d0     0.485549700451932d0     0.711284840756710d0
H1       0.996355105922438d0     0.664276291077734d0     0.720292903882119d0
H1       0.133193796538621d0     0.416848657913362d0     0.730375371679295d0
H1       0.863567927364648d0     0.414881737390484d0     0.731007314018844d0
O1       0.495048712404950d0     0.019770133022164d0     0.723456425257394d0
H1       0.613063309634704d0     0.937176932448463d0     0.735727162864627d0
H1       0.377188485998977d0     0.939162005802280d0     0.735645745749202d0
K_POINTS automatic
4 4 1  0 0 0 
