&CONTROL
  calculation='relax',
  prefix='calc',
  pseudo_dir='/storage/coda1/p-amedford6/0/shared/rich_project_chbe-medford/medford-share/data/pseudos_module/espresso/nninc/pbe/van',
  outdir='.',
  tefield=.true.,
  dipfield=.true.,
  tprnfor=.true.,
  disk_io='none',
/
&SYSTEM
  ibrav=0,
  celldm(1)=1.8897261245650618d0,
  nat=54,
  ntyp=4,
  ecutwfc=29.39945797996531d00,
  ecutrho=293.9945797996531d00,
  nbnd=209,
  occupations='smearing',
  smearing='fd',
  degauss=0.007349864494991328d00,
  input_dft='BEEF-vdW',
  edir=3,
  emaxpos=0.9763936604714598d00,
  eopreg=0.025d00,
  eamp=0.0d00,
  nosym=.false.,
  noinv=.false.,
  nosym_evc=.false.,
  no_t_rev=.false.,
/
&ELECTRONS
  diagonalization='david',
  conv_thr=7.349864494991327e-08,
  mixing_beta=0.05d00,
  electron_maxstep=1000,
  startingpot='file',
  startingwfc='atomic',
/
&IONS
  ion_dynamics='ipi',
/
&CELL
  cell_dynamics='ipi',
/
CELL_PARAMETERS alat
    6.579727202290808d0     0.000000000000000d0     0.000000000000000d0
   -0.000775132442404d0     5.961596420607155d0     0.000000000000000d0
    0.000000000000000d0    -0.000000000000000d0    25.155947251439940d0
ATOMIC_SPECIES
O1 15.999d00 O.UPF
Ti1 47.867d00 Ti.UPF
C1 12.011d00 C.UPF
H1 1.008d00 H.UPF
ATOMIC_POSITIONS {crystal}
O1       0.500093721748991d0     0.000084921243389d0     0.186906639369252d0
O1       0.500093721748991d0     0.500084921243389d0     0.186906639369252d0
Ti1      0.000123603383822d0     0.499897385958537d0     0.238512187198856d0
Ti1      0.000123603383822d0     0.999897385958537d0     0.238512187198856d0
Ti1      0.500142521004230d0     0.250038178055688d0     0.238522014307695d0
Ti1      0.500142521004230d0     0.750038178055688d0     0.238522014307695d0
O1       0.198268504441574d0     0.250236248865719d0     0.238667392858710d0
O1       0.198268504441574d0     0.750236248865719d0     0.238667392858710d0
O1       0.801993766892314d0     0.249987153755059d0     0.238669098461250d0
O1       0.801993766892315d0     0.749987153755059d0     0.238669098461250d0
O1       0.500112315057126d0     0.000084209992886d0     0.290342007718641d0
O1       0.500112315057126d0     0.500084209992886d0     0.290342007718641d0
O1       0.000095322930372d0     0.000084774873452d0     0.317452257936818d0
O1       0.000095322930372d0     0.500084774873452d0     0.317452257936818d0
Ti1      0.502097958493183d0     0.009200444697934d0     0.363931196508056d0
Ti1      0.504325690642813d0     0.508651712590069d0     0.364218132520200d0
Ti1      0.004544577670995d0     0.759921011746353d0     0.368049269583659d0
Ti1      0.003915078155940d0     0.269591147075519d0     0.372103911790920d0
O1       0.698270105622955d0     0.250236102495782d0     0.369213011426276d0
O1       0.698270105622955d0     0.750236102495782d0     0.369213011426276d0
O1       0.301995368073695d0     0.249987007385122d0     0.369214717028816d0
O1       0.301995368073695d0     0.749987007385122d0     0.369214717028816d0
O1       0.001020727474607d0     0.001519184802616d0     0.421405426344919d0
O1       0.001063656119056d0     0.501612741964561d0     0.420619523547209d0
O1       0.501953026983803d0     0.502134742759139d0     0.451417820111660d0
O1       0.501835575874687d0     0.001729311902846d0     0.451509058036234d0
Ti1      0.004895440057187d0     0.003168558243159d0     0.496958753101439d0
Ti1      0.506544518101611d0     0.753943843286764d0     0.497283956369276d0
Ti1      0.506543574093137d0     0.252601061860298d0     0.497061544171981d0
Ti1      0.004946292796396d0     0.503290736871550d0     0.507835315070967d0
O1       0.197108588891908d0     0.752051288652198d0     0.502396045985490d0
O1       0.197128925924452d0     0.251554432061809d0     0.502237507094413d0
O1       0.805665063752487d0     0.751831830092046d0     0.502507739701425d0
O1       0.805654362850333d0     0.251588756336736d0     0.502337823146061d0
O1       0.501871244079178d0     0.501202890724180d0     0.552898975190930d0
O1       0.502156487287740d0     0.001689168714754d0     0.555599173078975d0
O1       0.002702736417225d0     0.002775243142343d0     0.583743694336343d0
O1       0.003382929584379d0     0.502428629022243d0     0.584753255961907d0
Ti1      0.502867902857773d0     0.501798582295631d0     0.624150073611837d0
Ti1      0.504059013247729d0     0.001913739998247d0     0.628304077870963d0
Ti1      0.004663675130633d0     0.766629249592612d0     0.633425562856141d0
Ti1      0.004499876853135d0     0.233357398984902d0     0.635867918155173d0
O1       0.694141984442601d0     0.747212196524669d0     0.638199751036359d0
O1       0.693892023629101d0     0.256196026157247d0     0.638768927812390d0
O1       0.310046415585835d0     0.257412798730536d0     0.638810816720448d0
O1       0.309715430161379d0     0.745916232712750d0     0.638238651101227d0
O1       0.002446218360292d0     0.000939614560412d0     0.684397512420116d0
O1       0.997656790311870d0     0.503697988065382d0     0.692408041637565d0
C1       0.969845341974826d0     0.515044785509660d0     0.742975792662100d0
H1       0.959338379925835d0     0.679008198932241d0     0.761533149902762d0
H1       0.959466117911090d0     0.361182641025062d0     0.765880681573667d0
O1       0.496482600582426d0     0.995035189473715d0     0.724049605257973d0
H1       0.615442978756656d0     0.994335372051596d0     0.746547430283542d0
H1       0.375011173921341d0     0.994293115495817d0     0.745684437436309d0
K_POINTS automatic
4 4 1  0 0 0 
