&CONTROL
  calculation='relax',
  prefix='calc',
  pseudo_dir='/storage/coda1/p-amedford6/0/shared/rich_project_chbe-medford/medford-share/data/pseudos_module/espresso/nninc/pbe/van',
  outdir='.',
  tefield=.true.,
  dipfield=.true.,
  tprnfor=.true.,
  disk_io='none',
/
&SYSTEM
  ibrav=0,
  celldm(1)=1.8897261245650618d0,
  nat=59,
  ntyp=5,
  ecutwfc=29.39945797996531d00,
  ecutrho=293.9945797996531d00,
  nbnd=213,
  occupations='smearing',
  smearing='fd',
  degauss=0.007349864494991328d00,
  input_dft='BEEF-vdW',
  edir=3,
  emaxpos=0.9949350175533374d00,
  eopreg=0.025d00,
  eamp=0.0d00,
  nosym=.false.,
  noinv=.false.,
  nosym_evc=.false.,
  no_t_rev=.false.,
/
&ELECTRONS
  diagonalization='david',
  conv_thr=7.349864494991327e-08,
  mixing_beta=0.05d00,
  electron_maxstep=1000,
  startingpot='file',
  startingwfc='atomic',
/
&IONS
  ion_dynamics='ipi',
/
&CELL
  cell_dynamics='ipi',
/
CELL_PARAMETERS alat
    6.579727202290808d0     0.000000000000000d0     0.000000000000000d0
   -0.000775132442404d0     5.961596420607155d0     0.000000000000000d0
    0.000000000000000d0    -0.000000000000000d0    25.155947251439940d0
ATOMIC_SPECIES
Ti1 47.867d00 Ti.UPF
O1 15.999d00 O.UPF
N1 14.007d00 N.UPF
C1 12.011d00 C.UPF
H1 1.008d00 H.UPF
ATOMIC_POSITIONS {crystal}
Ti1      0.000123603383822d0     0.499897385958536d0     0.238512187198856d0
Ti1      0.500142521004230d0     0.250038178055688d0     0.238522014307695d0
O1       0.000095322930372d0     0.000084774873452d0     0.317452257936818d0
O1       0.500112315057126d0     0.000084209992886d0     0.290342007718641d0
O1       0.698270105622955d0     0.250236102495782d0     0.369213011426276d0
O1       0.301995368073695d0     0.249987007385122d0     0.369214717028816d0
Ti1      0.500198167309398d0     0.485761668506182d0     0.364758343030283d0
Ti1      0.000261424674789d0     0.248709163236136d0     0.368424970923767d0
O1       0.496735822241890d0     0.002229871692132d0     0.452365065899505d0
O1       0.001882992193933d0     0.999479849154423d0     0.422099495650131d0
O1       0.192762769633757d0     0.251798635731061d0     0.505625850165392d0
O1       0.802311573331368d0     0.251505873124048d0     0.504441476112952d0
Ti1      0.996456674437341d0     0.500258204629555d0     0.496863776997282d0
Ti1      0.496614283155135d0     0.250357070395970d0     0.498467466774528d0
O1       0.993247395469736d0     0.985223298655529d0     0.584340840122247d0
O1       0.500110823171151d0     0.997431631794297d0     0.556286762880903d0
O1       0.683309987974026d0     0.256500205566950d0     0.642415829693123d0
O1       0.302227570428777d0     0.253460307479721d0     0.639064667618273d0
Ti1      0.494410403884687d0     0.504166903944214d0     0.627049298549436d0
Ti1      0.000037873891416d0     0.223078885881008d0     0.628652616663485d0
O1       0.500093721748991d0     0.000084921243389d0     0.186906639369252d0
O1       0.991013670200697d0     0.034640069833533d0     0.685495893362156d0
O1       0.198268504441574d0     0.250236248865719d0     0.238667392858710d0
O1       0.801993766892314d0     0.249987153755059d0     0.238669098461250d0
Ti1      0.000123603383822d0     0.999897385958536d0     0.238512187198856d0
Ti1      0.500142521004230d0     0.750038178055688d0     0.238522014307695d0
O1       0.000095322930372d0     0.500084774873452d0     0.317452257936818d0
O1       0.500112315057126d0     0.500084209992886d0     0.290342007718641d0
O1       0.698270105622955d0     0.750236102495782d0     0.369213011426276d0
O1       0.301995368073695d0     0.749987007385122d0     0.369214717028816d0
Ti1      0.500001644927041d0     0.985370751416071d0     0.364779031055315d0
Ti1      0.000183276761494d0     0.748948988039575d0     0.368476322807288d0
O1       0.496865926113648d0     0.498460310054292d0     0.452207269475630d0
O1       0.001460782485842d0     0.499964783615161d0     0.422656139091726d0
O1       0.193278027408076d0     0.748908570932105d0     0.503495112087501d0
O1       0.801767084346324d0     0.749144699168516d0     0.502197642571753d0
Ti1      0.997539648827363d0     0.997683062569227d0     0.497187665999117d0
Ti1      0.496575648245201d0     0.749843698885009d0     0.497936839909543d0
O1       0.989280198519717d0     0.513052286037629d0     0.596676143647675d0
O1       0.499316994574480d0     0.505726736424342d0     0.555793480928724d0
O1       0.682588606411112d0     0.752530816287922d0     0.647133532189686d0
O1       0.300357430512430d0     0.753822452911982d0     0.644384045306438d0
Ti1      0.497706960771697d0     0.004053382934947d0     0.627665006995944d0
Ti1      0.998573020710524d0     0.762496678186289d0     0.640743581482288d0
O1       0.500093721748991d0     0.500084921243389d0     0.186906639369252d0
O1       0.198268504441574d0     0.750236248865719d0     0.238667392858710d0
O1       0.801993766892315d0     0.749987153755059d0     0.238669098461250d0
N1       0.151740055863737d0     0.519348626815495d0     0.755500398371395d0
N1       0.973718869060739d0     0.584395030200788d0     0.724398006866787d0
C1       0.251931163632962d0     0.715994418654619d0     0.778392087685544d0
H1       0.151114869513935d0     0.820294355233079d0     0.802909764334677d0
H1       0.376830415988908d0     0.655255501957275d0     0.802963395737422d0
H1       0.313154422272274d0     0.819607249138140d0     0.746621779711897d0
H1       0.098997694510122d0     0.420339626719558d0     0.785111259916714d0
H1       0.889285469100089d0     0.700074127810423d0     0.745012673246178d0
H1       0.883793620637910d0     0.445271538577417d0     0.723154132174775d0
O1       0.786042878591364d0     0.132333037600180d0     0.777873196347205d0
H1       0.843758996587041d0     0.087488494902730d0     0.743180752851555d0
H1       0.639846792404493d0     0.126016410556352d0     0.773847353819956d0
K_POINTS automatic
4 4 1  0 0 0 
