&CONTROL
  calculation='relax',
  prefix='calc',
  pseudo_dir='/storage/coda1/p-amedford6/0/shared/rich_project_chbe-medford/medford-share/data/pseudos_module/espresso/nninc/pbe/van',
  outdir='.',
  tefield=.true.,
  dipfield=.true.,
  tprnfor=.true.,
  disk_io='none',
/
&SYSTEM
  ibrav=0,
  celldm(1)=1.8897261245650618d0,
  nat=56,
  ntyp=5,
  ecutwfc=29.39945797996531d00,
  ecutrho=293.9945797996531d00,
  nbnd=211,
  occupations='smearing',
  smearing='fd',
  degauss=0.007349864494991328d00,
  input_dft='BEEF-vdW',
  edir=3,
  emaxpos=0.9990719150872233d00,
  eopreg=0.025d00,
  eamp=0.0d00,
  nosym=.false.,
  noinv=.false.,
  nosym_evc=.false.,
  no_t_rev=.false.,
/
&ELECTRONS
  diagonalization='david',
  conv_thr=7.349864494991327e-08,
  mixing_beta=0.05d00,
  electron_maxstep=1000,
  startingpot='file',
  startingwfc='atomic',
/
&IONS
  ion_dynamics='ipi',
/
&CELL
  cell_dynamics='ipi',
/
CELL_PARAMETERS alat
    6.579727202290808d0     0.000000000000000d0     0.000000000000000d0
   -0.000775132442404d0     5.961596420607155d0     0.000000000000000d0
    0.000000000000000d0    -0.000000000000000d0    25.155947251439940d0
ATOMIC_SPECIES
Ti1 47.867d00 Ti.UPF
O1 15.999d00 O.UPF
N1 14.007d00 N.UPF
C1 12.011d00 C.UPF
H1 1.008d00 H.UPF
ATOMIC_POSITIONS {crystal}
Ti1      0.000123603383822d0     0.499897385958536d0     0.238512187198856d0
Ti1      0.500142521004230d0     0.250038178055688d0     0.238522014307695d0
O1       0.000095322930372d0     0.000084774873452d0     0.317452257936818d0
O1       0.500112315057126d0     0.000084209992886d0     0.290342007718641d0
O1       0.698270105622955d0     0.250236102495782d0     0.369213011426276d0
O1       0.301995368073695d0     0.249987007385122d0     0.369214717028816d0
Ti1      0.500198167309398d0     0.485761668506182d0     0.364758343030283d0
Ti1      0.000261424674789d0     0.248709163236136d0     0.368424970923767d0
O1       0.499052202168166d0     0.996359329282104d0     0.450964233902335d0
O1       0.001882992193933d0     0.999479849154423d0     0.422099495650131d0
O1       0.194345976930530d0     0.245346014798886d0     0.501987736697882d0
O1       0.801041726394355d0     0.245866158348695d0     0.501512141905795d0
Ti1      0.009189279308069d0     0.493047058522416d0     0.501408917038359d0
Ti1      0.512771819909600d0     0.244944862870125d0     0.496941862533945d0
O1       0.998407094997337d0     0.995087242426223d0     0.581786606528842d0
O1       0.499375949224373d0     0.995810105511047d0     0.555010487638279d0
O1       0.689457112975734d0     0.253527397592163d0     0.638324436437820d0
O1       0.307649619168214d0     0.251746061273220d0     0.637556187863692d0
Ti1      0.497095006115812d0     0.495209001787935d0     0.623664926693970d0
Ti1      0.993863443660507d0     0.250508134944859d0     0.628104503663364d0
O1       0.500093721748991d0     0.000084921243389d0     0.186906639369252d0
O1       0.996866414714606d0     0.999232862219782d0     0.683524491743619d0
O1       0.198268504441574d0     0.250236248865719d0     0.238667392858710d0
O1       0.801993766892314d0     0.249987153755059d0     0.238669098461250d0
Ti1      0.000123603383822d0     0.999897385958536d0     0.238512187198856d0
Ti1      0.500142521004230d0     0.750038178055688d0     0.238522014307695d0
O1       0.000095322930372d0     0.500084774873452d0     0.317452257936818d0
O1       0.500112315057126d0     0.500084209992886d0     0.290342007718641d0
O1       0.698270105622955d0     0.750236102495782d0     0.369213011426276d0
O1       0.301995368073695d0     0.749987007385122d0     0.369214717028816d0
Ti1      0.500001644927041d0     0.985370751416071d0     0.364779031055315d0
Ti1      0.000183276761494d0     0.748948988039575d0     0.368476322807288d0
O1       0.499902421773089d0     0.496861004531837d0     0.450884229878773d0
O1       0.001460782485842d0     0.499964783615161d0     0.422656139091726d0
O1       0.194410969335353d0     0.746590468661613d0     0.502120014506937d0
O1       0.801671882226833d0     0.747725220910447d0     0.501618883758975d0
Ti1      0.008634627803489d0     0.991923703129266d0     0.498767048379439d0
Ti1      0.512914160123314d0     0.746951276617959d0     0.496986465737464d0
O1       0.997907329178182d0     0.492652381314071d0     0.582433375723154d0
O1       0.498637648281773d0     0.496413533791974d0     0.552425037768345d0
O1       0.688697427229163d0     0.741479125345170d0     0.638832369787942d0
O1       0.306619958813131d0     0.742047975690910d0     0.638317966629603d0
Ti1      0.493964666058522d0     0.993160753060180d0     0.628196357840486d0
Ti1      0.994412262748187d0     0.776941825213576d0     0.638729254561971d0
O1       0.500093721748991d0     0.500084921243389d0     0.186906639369252d0
O1       0.198268504441574d0     0.750236248865719d0     0.238667392858710d0
O1       0.801993766892315d0     0.749987153755059d0     0.238669098461250d0
N1       0.023107708882735d0     0.442311570074182d0     0.740969214626400d0
N1       0.005284161490583d0     0.481996118112984d0     0.693837028949188d0
C1       0.029085806764689d0     0.632470149632208d0     0.779085382153475d0
H1       0.993044913287479d0     0.793978830846594d0     0.761229850862804d0
H1       0.924377507852282d0     0.590952664792129d0     0.811237190805194d0
H1       0.182282741633205d0     0.635403270726683d0     0.795916909904962d0
O1       0.493185135412278d0     0.998026013936872d0     0.723582637069987d0
H1       0.613506551962336d0     0.081652298220549d0     0.734109259112359d0
H1       0.375550360796421d0     0.086559050444811d0     0.733915401647860d0
K_POINTS automatic
4 4 1  0 0 0 
