&CONTROL
  calculation='relax',
  prefix='calc',
  pseudo_dir='/storage/coda1/p-amedford6/0/shared/rich_project_chbe-medford/medford-share/data/pseudos_module/espresso/nninc/pbe/van',
  outdir='.',
  tefield=.true.,
  dipfield=.true.,
  tprnfor=.true.,
  disk_io='none',
/
&SYSTEM
  ibrav=0,
  celldm(1)=1.8897261245650618d0,
  nat=55,
  ntyp=5,
  ecutwfc=29.39945797996531d00,
  ecutrho=293.9945797996531d00,
  nbnd=211,
  occupations='smearing',
  smearing='fd',
  degauss=0.007349864494991328d00,
  input_dft='BEEF-vdW',
  edir=3,
  emaxpos=0.050218400078689385d00,
  eopreg=0.025d00,
  eamp=0.0d00,
  nosym=.false.,
  noinv=.false.,
  nosym_evc=.false.,
  no_t_rev=.false.,
/
&ELECTRONS
  diagonalization='david',
  conv_thr=7.349864494991327e-08,
  mixing_beta=0.05d00,
  electron_maxstep=1000,
  startingpot='file',
  startingwfc='atomic',
/
&IONS
  ion_dynamics='ipi',
/
&CELL
  cell_dynamics='ipi',
/
CELL_PARAMETERS alat
    6.579727202290808d0     0.000000000000000d0     0.000000000000000d0
   -0.000775132442404d0     5.961596420607155d0     0.000000000000000d0
    0.000000000000000d0    -0.000000000000000d0    25.155947251439940d0
ATOMIC_SPECIES
Ti1 47.867d00 Ti.UPF
O1 15.999d00 O.UPF
C1 12.011d00 C.UPF
H1 1.008d00 H.UPF
N1 14.007d00 N.UPF
ATOMIC_POSITIONS {crystal}
Ti1      0.000123603383822d0     0.499897385958537d0     0.238512187198856d0
Ti1      0.500142521004230d0     0.250038178055688d0     0.238522014307695d0
O1       0.000095322930372d0     0.000084774873452d0     0.317452257936818d0
O1       0.500112315057126d0     0.000084209992886d0     0.290342007718641d0
O1       0.698270105622955d0     0.250236102495782d0     0.369213011426276d0
O1       0.301995368073695d0     0.249987007385122d0     0.369214717028816d0
Ti1      0.504812949443323d0     0.504595337956919d0     0.363957109183407d0
Ti1      0.005730201891921d0     0.252968686175494d0     0.368567229129891d0
O1       0.505882202779701d0     0.999024296499336d0     0.451957944190319d0
O1       0.001318086321706d0     0.999930776700009d0     0.421694555841657d0
O1       0.201825943259275d0     0.249333409681334d0     0.502456106186887d0
O1       0.809520119695592d0     0.249221239174760d0     0.503579274224238d0
Ti1      0.005867740603766d0     0.500991388234914d0     0.498750987282442d0
Ti1      0.505897344286737d0     0.248904622167847d0     0.497281433856834d0
O1       0.010726173900396d0     0.998542471042183d0     0.583810391539504d0
O1       0.504015351319237d0     0.998181670020442d0     0.556611921379363d0
O1       0.702434639417378d0     0.251601756927521d0     0.642698900571002d0
O1       0.319620199668822d0     0.252123503472211d0     0.643569603210483d0
Ti1      0.510793366435663d0     0.496592344314803d0     0.625296420667078d0
Ti1      0.009079240139589d0     0.222520891976314d0     0.636096466331440d0
O1       0.500093721748991d0     0.000084921243389d0     0.186906639369252d0
O1       0.009590084451984d0     0.998459345106838d0     0.684351708104723d0
O1       0.198268504441574d0     0.250236248865719d0     0.238667392858710d0
O1       0.801993766892314d0     0.249987153755059d0     0.238669098461250d0
Ti1      0.000123603383822d0     0.999897385958537d0     0.238512187198856d0
Ti1      0.500142521004230d0     0.750038178055688d0     0.238522014307695d0
O1       0.000095322930372d0     0.500084774873452d0     0.317452257936818d0
O1       0.500112315057126d0     0.500084209992886d0     0.290342007718641d0
O1       0.698270105622955d0     0.750236102495782d0     0.369213011426276d0
O1       0.301995368073695d0     0.749987007385122d0     0.369214717028816d0
Ti1      0.504523639974674d0     0.004581563269879d0     0.363900124229856d0
Ti1      0.005732271201571d0     0.750637887282202d0     0.368434552595516d0
O1       0.505691421924113d0     0.498823512204359d0     0.451641436527763d0
O1       0.001617747849245d0     0.499857348999218d0     0.422503612899004d0
O1       0.201828915898985d0     0.749197111352113d0     0.502416340799949d0
O1       0.809474311665818d0     0.749241105762156d0     0.503571114262782d0
Ti1      0.005371565284437d0     0.001686180445935d0     0.496324703971472d0
Ti1      0.505811685006826d0     0.748317665449931d0     0.497256757023805d0
O1       0.011930025173088d0     0.500400241527374d0     0.590527135233885d0
O1       0.505328793159476d0     0.498707123682152d0     0.554409057554948d0
O1       0.703137092384580d0     0.745044323282317d0     0.642070096334834d0
O1       0.320364632440575d0     0.741959416919157d0     0.644946362839921d0
Ti1      0.506634972527370d0     0.997677394633953d0     0.627820482791638d0
Ti1      0.002849586607815d0     0.760599952311084d0     0.631277961668988d0
O1       0.500093721748991d0     0.500084921243389d0     0.186906639369252d0
O1       0.198268504441574d0     0.750236248865719d0     0.238667392858710d0
O1       0.801993766892315d0     0.749987153755059d0     0.238669098461250d0
C1       0.922469978881768d0     0.517467653927045d0     0.752812149165170d0
O1       0.032432421984883d0     0.504112498916913d0     0.702908913363814d0
H1       0.764978889672498d0     0.479558954966109d0     0.743796642114251d0
H1       0.176014224350170d0     0.537898982360987d0     0.708644289300603d0
H1       0.982988712117178d0     0.392031461098958d0     0.780020376055419d0
H1       0.935533496495629d0     0.686215423688387d0     0.769025656600749d0
N1       0.891786243403484d0     0.527437247628353d0     0.913530160788126d0
N1       0.777944472837099d0     0.541483605993065d0     0.881391878566222d0
K_POINTS automatic
4 4 1  0 0 0 
