&CONTROL
  calculation='relax',
  prefix='calc',
  pseudo_dir='/storage/coda1/p-amedford6/0/shared/rich_project_chbe-medford/medford-share/data/pseudos_module/espresso/nninc/pbe/van',
  outdir='.',
  tefield=.true.,
  dipfield=.true.,
  tprnfor=.true.,
  disk_io='none',
/
&SYSTEM
  ibrav=0,
  celldm(1)=1.8897261245650618d0,
  nat=53,
  ntyp=5,
  ecutwfc=29.39945797996531d00,
  ecutrho=293.9945797996531d00,
  nbnd=205,
  occupations='smearing',
  smearing='fd',
  degauss=0.007349864494991328d00,
  input_dft='BEEF-vdW',
  edir=3,
  emaxpos=0.9923167258081816d00,
  eopreg=0.025d00,
  eamp=0.0d00,
  nosym=.false.,
  noinv=.false.,
  nosym_evc=.false.,
  no_t_rev=.false.,
/
&ELECTRONS
  diagonalization='david',
  conv_thr=7.349864494991327e-08,
  mixing_beta=0.05d00,
  electron_maxstep=1000,
  startingwfc='atomic',
/
&IONS
  ion_dynamics='ipi',
/
&CELL
  cell_dynamics='ipi',
/
CELL_PARAMETERS alat
    6.579727202290808d0     0.000000000000000d0     0.000000000000000d0
   -0.000775132442404d0     5.961596420607155d0     0.000000000000000d0
    0.000000000000000d0    -0.000000000000000d0    25.155947251439940d0
ATOMIC_SPECIES
Ti1 47.867d00 Ti.UPF
O1 15.999d00 O.UPF
N1 14.007d00 N.UPF
C1 12.011d00 C.UPF
H1 1.008d00 H.UPF
ATOMIC_POSITIONS {crystal}
Ti1      0.000123603383822d0     0.499897385958536d0     0.238512187198856d0
Ti1      0.500142521004230d0     0.250038178055688d0     0.238522014307695d0
O1       0.000095322930372d0     0.000084774873452d0     0.317452257936818d0
O1       0.500112315057126d0     0.000084209992886d0     0.290342007718641d0
O1       0.698270105622955d0     0.250236102495782d0     0.369213011426276d0
O1       0.301995368073695d0     0.249987007385122d0     0.369214717028816d0
Ti1      0.500198167309398d0     0.485761668506182d0     0.364758343030283d0
Ti1      0.000261424674789d0     0.248709163236136d0     0.368424970923767d0
O1       0.494625754741832d0     0.993827062961823d0     0.452111207280903d0
O1       0.001882992193933d0     0.999479849154423d0     0.422099495650131d0
O1       0.192088596816928d0     0.244750774836843d0     0.504549051309338d0
O1       0.801268661718454d0     0.244290512346489d0     0.503193826585183d0
Ti1      0.994371073135289d0     0.494231466700931d0     0.497154382391736d0
Ti1      0.490564702789274d0     0.242338301338469d0     0.497448782113985d0
O1       0.992981304970488d0     0.980510284266637d0     0.583411713719500d0
O1       0.500010394927001d0     0.993054820788266d0     0.556069092551104d0
O1       0.684884080487934d0     0.249956313481493d0     0.642341362517089d0
O1       0.302627641416162d0     0.248460151664489d0     0.640496812042019d0
Ti1      0.495059914269100d0     0.495498459277755d0     0.626617209070592d0
Ti1      0.998218386814284d0     0.214789546244325d0     0.628565758129446d0
O1       0.500093721748991d0     0.000084921243389d0     0.186906639369252d0
O1       0.993281776491510d0     0.020437249392795d0     0.684350114041609d0
O1       0.198268504441574d0     0.250236248865719d0     0.238667392858710d0
O1       0.801993766892314d0     0.249987153755059d0     0.238669098461250d0
Ti1      0.000123603383822d0     0.999897385958536d0     0.238512187198856d0
Ti1      0.500142521004230d0     0.750038178055688d0     0.238522014307695d0
O1       0.000095322930372d0     0.500084774873452d0     0.317452257936818d0
O1       0.500112315057126d0     0.500084209992886d0     0.290342007718641d0
O1       0.698270105622955d0     0.750236102495782d0     0.369213011426276d0
O1       0.301995368073695d0     0.749987007385122d0     0.369214717028816d0
Ti1      0.500001644927041d0     0.985370751416071d0     0.364779031055315d0
Ti1      0.000183276761494d0     0.748948988039575d0     0.368476322807288d0
O1       0.494949655817782d0     0.493981203806149d0     0.452007250592104d0
O1       0.001460782485842d0     0.499964783615161d0     0.422656139091726d0
O1       0.192070909669389d0     0.742204999631733d0     0.503626044622575d0
O1       0.800156731798933d0     0.741859764360018d0     0.502422069138654d0
Ti1      0.991156063393518d0     0.993027880279632d0     0.496830692849827d0
Ti1      0.490644519662631d0     0.742228372208038d0     0.498208442531853d0
O1       0.989277980768259d0     0.503351667409286d0     0.595480086724037d0
O1       0.497073213789773d0     0.494662214454417d0     0.555353490405441d0
O1       0.682579833064459d0     0.745778256231937d0     0.645262066105525d0
O1       0.301192476734064d0     0.746487923632469d0     0.642359852552129d0
Ti1      0.496824867208496d0     0.995266422090341d0     0.627733181137335d0
Ti1      0.999515136646764d0     0.756904265223954d0     0.639774014492902d0
O1       0.500093721748991d0     0.500084921243389d0     0.186906639369252d0
O1       0.198268504441574d0     0.750236248865719d0     0.238667392858710d0
O1       0.801993766892315d0     0.749987153755059d0     0.238669098461250d0
N1       0.962168070179695d0     0.557848360895222d0     0.726663201736972d0
C1       0.132069359128530d0     0.512435002056852d0     0.758749658877207d0
H1       0.217673997837311d0     0.362693179057607d0     0.749678398140392d0
H1       0.869145781128385d0     0.675664666307965d0     0.742762674157237d0
H1       0.876119800231735d0     0.418105268884522d0     0.718740347340535d0
H1       0.137680884953101d0     0.587860018614918d0     0.797726812247111d0
K_POINTS automatic
4 4 1  0 0 0 
