&CONTROL
  calculation='relax',
  prefix='calc',
  pseudo_dir='/storage/coda1/p-amedford6/0/shared/rich_project_chbe-medford/medford-share/data/pseudos_module/espresso/nninc/pbe/van',
  outdir='.',
  tefield=.true.,
  dipfield=.true.,
  tprnfor=.true.,
  disk_io='none',
/
&SYSTEM
  ibrav=0,
  celldm(1)=1.8897261245650618d0,
  nat=53,
  ntyp=4,
  ecutwfc=29.39945797996531d00,
  ecutrho=293.9945797996531d00,
  nbnd=206,
  occupations='smearing',
  smearing='fd',
  degauss=0.007349864494991328d00,
  input_dft='BEEF-vdW',
  edir=3,
  emaxpos=0.9822474694079748d00,
  eopreg=0.025d00,
  eamp=0.0d00,
  nosym=.false.,
  noinv=.false.,
  nosym_evc=.false.,
  no_t_rev=.false.,
/
&ELECTRONS
  diagonalization='david',
  conv_thr=7.349864494991327e-08,
  mixing_beta=0.05d00,
  electron_maxstep=1000,
  startingwfc='atomic',
/
&IONS
  ion_dynamics='ipi',
/
&CELL
  cell_dynamics='ipi',
/
CELL_PARAMETERS alat
    6.579727202290808d0     0.000000000000000d0     0.000000000000000d0
   -0.000775132442404d0     5.961596420607155d0     0.000000000000000d0
    0.000000000000000d0    -0.000000000000000d0    25.155947251439940d0
ATOMIC_SPECIES
Ti1 47.867d00 Ti.UPF
O1 15.999d00 O.UPF
C1 12.011d00 C.UPF
H1 1.008d00 H.UPF
ATOMIC_POSITIONS {crystal}
Ti1      0.000123603383822d0     0.499897385958537d0     0.238512187198856d0
Ti1      0.500142521004230d0     0.250038178055688d0     0.238522014307695d0
O1       0.000095322930372d0     0.000084774873452d0     0.317452257936818d0
O1       0.500112315057126d0     0.000084209992886d0     0.290342007718641d0
O1       0.698270105622955d0     0.250236102495782d0     0.369213011426276d0
O1       0.301995368073695d0     0.249987007385122d0     0.369214717028816d0
Ti1      0.504978123935837d0     0.497535574777925d0     0.363924218761277d0
Ti1      0.007265840542358d0     0.248112328646649d0     0.368290293835058d0
O1       0.497298537862275d0     0.999306627654643d0     0.451452111870156d0
O1       0.000113468747414d0     0.999265475476862d0     0.421633989606701d0
O1       0.192496969273756d0     0.250737671343038d0     0.502942503431473d0
O1       0.800572491929336d0     0.249907483752262d0     0.502930414747773d0
Ti1      0.996214125402174d0     0.501138630461010d0     0.496905306380675d0
Ti1      0.498241516529291d0     0.251065475032745d0     0.497251664329235d0
O1       0.993486265146740d0     0.998109327100566d0     0.582280475575001d0
O1       0.494545566583441d0     0.997242196582938d0     0.555406125087396d0
O1       0.686328513312007d0     0.246979751653163d0     0.641520158356382d0
O1       0.300881079511226d0     0.246083475959831d0     0.641188744143186d0
Ti1      0.492336887044208d0     0.495032847137325d0     0.625683685707678d0
Ti1      0.993683297104070d0     0.223041490178422d0     0.632959376679400d0
O1       0.500093721748991d0     0.000084921243389d0     0.186906639369252d0
O1       0.995372468197046d0     0.990659314699064d0     0.683010620262350d0
O1       0.198268504441574d0     0.250236248865719d0     0.238667392858710d0
O1       0.801993766892314d0     0.249987153755059d0     0.238669098461250d0
Ti1      0.000123603383822d0     0.999897385958537d0     0.238512187198856d0
Ti1      0.500142521004230d0     0.750038178055688d0     0.238522014307695d0
O1       0.000095322930372d0     0.500084774873452d0     0.317452257936818d0
O1       0.500112315057126d0     0.500084209992886d0     0.290342007718641d0
O1       0.698270105622955d0     0.750236102495782d0     0.369213011426276d0
O1       0.301995368073695d0     0.749987007385122d0     0.369214717028816d0
Ti1      0.505614376210612d0     0.996909980251450d0     0.363833210725461d0
Ti1      0.007088167459626d0     0.747559051665780d0     0.368015377851382d0
O1       0.498225974220662d0     0.499680035136951d0     0.451284695415164d0
O1       0.998648407983966d0     0.500262103455127d0     0.422247621997461d0
O1       0.192693340700090d0     0.749041499801297d0     0.503096609596759d0
O1       0.800235481073657d0     0.749457174016647d0     0.503214171411535d0
Ti1      0.998970927055893d0     0.001943426160562d0     0.495764308466806d0
Ti1      0.497891978151782d0     0.750568716731969d0     0.497422350911952d0
O1       0.995694749264589d0     0.494219542836646d0     0.594075380123953d0
O1       0.496144653892954d0     0.496247686216551d0     0.554442872931257d0
O1       0.686058897568702d0     0.742050209921512d0     0.641200480862171d0
O1       0.300794495642702d0     0.744053498024134d0     0.640869136287335d0
Ti1      0.492974998190794d0     0.994928845243624d0     0.626830772041651d0
Ti1      0.989675567174652d0     0.769182315714620d0     0.631317000285613d0
O1       0.500093721748991d0     0.500084921243389d0     0.186906639369252d0
O1       0.198268504441574d0     0.750236248865719d0     0.238667392858710d0
O1       0.801993766892315d0     0.749987153755059d0     0.238669098461250d0
C1       0.013768187460018d0     0.483916665561901d0     0.756387230569656d0
O1       0.218608540464553d0     0.551695742929649d0     0.761909244611322d0
H1       0.001441814856566d0     0.312924458573765d0     0.770909682652497d0
H1       0.232830048406530d0     0.704651632712495d0     0.749173776758940d0
H1       0.907848966287404d0     0.593307578553392d0     0.777588299446697d0
H1       0.962459024345605d0     0.482602721168349d0     0.714362961742154d0
K_POINTS automatic
4 4 1  0 0 0 
