&CONTROL
  calculation='relax',
  prefix='calc',
  pseudo_dir='/storage/coda1/p-amedford6/0/shared/rich_project_chbe-medford/medford-share/data/pseudos_module/espresso/nninc/pbe/van',
  outdir='.',
  tefield=.true.,
  dipfield=.true.,
  tprnfor=.true.,
  disk_io='none',
/
&SYSTEM
  ibrav=0,
  celldm(1)=1.8897261245650618d0,
  nat=55,
  ntyp=5,
  ecutwfc=29.39945797996531d00,
  ecutrho=293.9945797996531d00,
  nbnd=206,
  occupations='smearing',
  smearing='fd',
  degauss=0.007349864494991328d00,
  input_dft='BEEF-vdW',
  edir=3,
  emaxpos=0.0426205170006595d00,
  eopreg=0.025d00,
  eamp=0.0d00,
  nosym=.false.,
  noinv=.false.,
  nosym_evc=.false.,
  no_t_rev=.false.,
/
&ELECTRONS
  diagonalization='david',
  conv_thr=7.349864494991327e-08,
  mixing_beta=0.05d00,
  electron_maxstep=1000,
  startingwfc='atomic',
/
&IONS
  ion_dynamics='ipi',
/
&CELL
  cell_dynamics='ipi',
/
CELL_PARAMETERS alat
    6.579727202290808d0     0.000000000000000d0     0.000000000000000d0
   -0.000775132442404d0     5.961596420607155d0     0.000000000000000d0
    0.000000000000000d0    -0.000000000000000d0    25.155947251439940d0
ATOMIC_SPECIES
Ti1 47.867d00 Ti.UPF
O1 15.999d00 O.UPF
C1 12.011d00 C.UPF
H1 1.008d00 H.UPF
N1 14.007d00 N.UPF
ATOMIC_POSITIONS {crystal}
Ti1      0.000123603383822d0     0.499897385958536d0     0.238512187198856d0
Ti1      0.500142521004230d0     0.250038178055688d0     0.238522014307695d0
O1       0.000095322930372d0     0.000084774873452d0     0.317452257936818d0
O1       0.500112315057126d0     0.000084209992886d0     0.290342007718641d0
O1       0.698270105622955d0     0.250236102495782d0     0.369213011426276d0
O1       0.301995368073695d0     0.249987007385122d0     0.369214717028816d0
Ti1      0.500198167309398d0     0.485761668506182d0     0.364758343030283d0
Ti1      0.000261424674789d0     0.248709163236136d0     0.368424970923767d0
O1       0.501229143128654d0     0.000168266639337d0     0.450622651017233d0
O1       0.001882992193933d0     0.999479849154423d0     0.422099495650131d0
O1       0.198535788592247d0     0.252110842542754d0     0.501921651193147d0
O1       0.802919433208802d0     0.252488727933169d0     0.501761221832385d0
Ti1      0.005043158203815d0     0.494742994557816d0     0.502882476987003d0
Ti1      0.506427586506291d0     0.250030556882797d0     0.496274696515465d0
O1       0.000668532152587d0     0.007863454046387d0     0.581015838804168d0
O1       0.500860908688502d0     0.002039068957087d0     0.553649934495361d0
O1       0.691139203612060d0     0.253463875315147d0     0.639068243854244d0
O1       0.312321973805975d0     0.253332032191009d0     0.638938016632696d0
Ti1      0.501167573581322d0     0.502130960016709d0     0.624490279303247d0
Ti1      0.998456485639818d0     0.235461013824614d0     0.628822641595298d0
O1       0.500093721748991d0     0.000084921243389d0     0.186906639369252d0
O1       0.002403928329348d0     0.002732009167219d0     0.681710669982391d0
O1       0.198268504441574d0     0.250236248865719d0     0.238667392858710d0
O1       0.801993766892314d0     0.249987153755059d0     0.238669098461250d0
Ti1      0.000123603383822d0     0.999897385958536d0     0.238512187198856d0
Ti1      0.500142521004230d0     0.750038178055688d0     0.238522014307695d0
O1       0.000095322930372d0     0.500084774873452d0     0.317452257936818d0
O1       0.500112315057126d0     0.500084209992886d0     0.290342007718641d0
O1       0.698270105622955d0     0.750236102495782d0     0.369213011426276d0
O1       0.301995368073695d0     0.749987007385122d0     0.369214717028816d0
Ti1      0.500001644927041d0     0.985370751416071d0     0.364779031055315d0
Ti1      0.000183276761494d0     0.748948988039575d0     0.368476322807288d0
O1       0.501102978409506d0     0.500992198860290d0     0.450578289595696d0
O1       0.001460782485842d0     0.499964783615161d0     0.422656139091726d0
O1       0.197960867957895d0     0.751611042007341d0     0.502404234258079d0
O1       0.803745068847937d0     0.752144660938084d0     0.502273950663766d0
Ti1      0.004607466910140d0     0.993456723679693d0     0.498844195432521d0
Ti1      0.506335515078372d0     0.749466936453582d0     0.496542222510372d0
O1       0.001542181534916d0     0.500560814892889d0     0.585024062856500d0
O1       0.501700656717747d0     0.501368365145870d0     0.553125764400339d0
O1       0.691056008330617d0     0.749993669481324d0     0.639599419850366d0
O1       0.313685380767983d0     0.751006197825767d0     0.638891990175390d0
Ti1      0.497113918888528d0     0.002107667915157d0     0.625112004693054d0
Ti1      0.996590895065311d0     0.753901405472389d0     0.642783645780099d0
O1       0.500093721748991d0     0.500084921243389d0     0.186906639369252d0
O1       0.198268504441574d0     0.750236248865719d0     0.238667392858710d0
O1       0.801993766892315d0     0.749987153755059d0     0.238669098461250d0
C1       0.006750967134174d0     0.518436503674557d0     0.709116310097679d0
H1       0.885320757020798d0     0.604964387101424d0     0.730827118268104d0
H1       0.985878815264992d0     0.341225706297710d0     0.718291166882479d0
H1       0.151703788163435d0     0.567238144919413d0     0.726975005754554d0
N1       0.723923633984326d0     0.301019716616679d0     0.860235096877942d0
H1       0.690942050369220d0     0.466514876651700d0     0.856411040198534d0
H1       0.623985533418382d0     0.216928605989102d0     0.836848031705667d0
H1       0.691092523698411d0     0.258486959175848d0     0.898334394632067d0
K_POINTS automatic
4 4 1  0 0 0 
