&CONTROL
  calculation='relax',
  prefix='calc',
  pseudo_dir='/storage/coda1/p-amedford6/0/shared/rich_project_chbe-medford/medford-share/data/pseudos_module/espresso/nninc/pbe/van',
  outdir='.',
  tefield=.true.,
  dipfield=.true.,
  tprnfor=.true.,
  disk_io='none',
/
&SYSTEM
  ibrav=0,
  celldm(1)=1.8897261245650618d0,
  nat=53,
  ntyp=5,
  ecutwfc=29.39945797996531d00,
  ecutrho=293.9945797996531d00,
  nbnd=207,
  occupations='smearing',
  smearing='fd',
  degauss=0.007349864494991328d00,
  input_dft='BEEF-vdW',
  edir=3,
  emaxpos=0.98400001522487d00,
  eopreg=0.025d00,
  eamp=0.0d00,
  nosym=.false.,
  noinv=.false.,
  nosym_evc=.false.,
  no_t_rev=.false.,
/
&ELECTRONS
  diagonalization='david',
  conv_thr=7.349864494991327e-08,
  mixing_beta=0.05d00,
  electron_maxstep=1000,
  startingwfc='atomic',
/
&IONS
  ion_dynamics='ipi',
/
&CELL
  cell_dynamics='ipi',
/
CELL_PARAMETERS alat
    6.579727202290808d0     0.000000000000000d0     0.000000000000000d0
   -0.000775132442404d0     5.961596420607155d0     0.000000000000000d0
    0.000000000000000d0    -0.000000000000000d0    25.155947251439940d0
ATOMIC_SPECIES
Ti1 47.867d00 Ti.UPF
O1 15.999d00 O.UPF
N1 14.007d00 N.UPF
C1 12.011d00 C.UPF
H1 1.008d00 H.UPF
ATOMIC_POSITIONS {crystal}
Ti1      0.000123603383822d0     0.499897385958536d0     0.238512187198856d0
Ti1      0.500142521004230d0     0.250038178055688d0     0.238522014307695d0
O1       0.000095322930372d0     0.000084774873452d0     0.317452257936818d0
O1       0.500112315057126d0     0.000084209992886d0     0.290342007718641d0
O1       0.698270105622955d0     0.250236102495782d0     0.369213011426276d0
O1       0.301995368073695d0     0.249987007385122d0     0.369214717028816d0
Ti1      0.500198167309398d0     0.485761668506182d0     0.364758343030283d0
Ti1      0.000261424674789d0     0.248709163236136d0     0.368424970923767d0
O1       0.512070493529374d0     0.999391012072580d0     0.451883437835185d0
O1       0.001882992193933d0     0.999479849154423d0     0.422099495650131d0
O1       0.208416194398891d0     0.249647371733918d0     0.501303658711430d0
O1       0.822614526923454d0     0.247915477646490d0     0.504254497057775d0
Ti1      0.009279421410986d0     0.499812499958943d0     0.499943476134213d0
Ti1      0.503408743923218d0     0.248980369140520d0     0.497545475359910d0
O1       0.029395602288583d0     0.965635255927917d0     0.583139516050364d0
O1       0.514682659043289d0     0.002305999963107d0     0.553904430214634d0
O1       0.721522322759464d0     0.247970511876253d0     0.638299117805953d0
O1       0.339634319869180d0     0.248071861171060d0     0.640369891424537d0
Ti1      0.533245532788209d0     0.505580288212465d0     0.624925730503469d0
Ti1      0.029378897091412d0     0.198978799070750d0     0.625840581922060d0
O1       0.500093721748991d0     0.000084921243389d0     0.186906639369252d0
O1       0.028165243797333d0     0.012212016676036d0     0.683267278867347d0
O1       0.198268504441574d0     0.250236248865719d0     0.238667392858710d0
O1       0.801993766892314d0     0.249987153755059d0     0.238669098461250d0
Ti1      0.000123603383822d0     0.999897385958536d0     0.238512187198856d0
Ti1      0.500142521004230d0     0.750038178055688d0     0.238522014307695d0
O1       0.000095322930372d0     0.500084774873452d0     0.317452257936818d0
O1       0.500112315057126d0     0.500084209992886d0     0.290342007718641d0
O1       0.698270105622955d0     0.750236102495782d0     0.369213011426276d0
O1       0.301995368073695d0     0.749987007385122d0     0.369214717028816d0
Ti1      0.500001644927041d0     0.985370751416071d0     0.364779031055315d0
Ti1      0.000183276761494d0     0.748948988039575d0     0.368476322807288d0
O1       0.513082073073398d0     0.499579602040452d0     0.452125677124646d0
O1       0.001460782485842d0     0.499964783615161d0     0.422656139091726d0
O1       0.209085665924701d0     0.747170239995815d0     0.500340062795544d0
O1       0.820210232096892d0     0.748596160481330d0     0.503162650170766d0
Ti1      0.008156934792370d0     0.995824388150938d0     0.498900104431919d0
Ti1      0.503521316117640d0     0.748610040909965d0     0.497255293201709d0
O1       0.028078436594624d0     0.493522200106280d0     0.593175194710107d0
O1       0.517469653989344d0     0.498783466236174d0     0.553512026359693d0
O1       0.714498295493308d0     0.750000107919797d0     0.640405840032978d0
O1       0.345256239052576d0     0.750286510472020d0     0.640690992116530d0
Ti1      0.523206144093252d0     0.002098257270919d0     0.625727057386080d0
Ti1      0.022164747425144d0     0.725679529361470d0     0.650736916467226d0
O1       0.500093721748991d0     0.500084921243389d0     0.186906639369252d0
O1       0.198268504441574d0     0.750236248865719d0     0.238667392858710d0
O1       0.801993766892315d0     0.749987153755059d0     0.238669098461250d0
N1       0.105778177886436d0     0.563577011742019d0     0.716075518994272d0
C1       0.276853954947550d0     0.513240025246810d0     0.755210772115813d0
H1       0.277629281176131d0     0.667048845870175d0     0.781093391080488d0
H1       0.246260198532392d0     0.360981674141634d0     0.777999092659007d0
H1       0.419914416248734d0     0.503695323180623d0     0.733571123747661d0
N1       0.932252020863596d0     0.509781681447541d0     0.725827458940335d0
K_POINTS automatic
4 4 1  0 0 0 
