&CONTROL
  calculation='relax',
  prefix='calc',
  pseudo_dir='/storage/coda1/p-amedford6/0/shared/rich_project_chbe-medford/medford-share/data/pseudos_module/espresso/nninc/pbe/van',
  outdir='.',
  tefield=.true.,
  dipfield=.true.,
  tprnfor=.true.,
  disk_io='none',
/
&SYSTEM
  ibrav=0,
  celldm(1)=1.8897261245650618d0,
  nat=47,
  ntyp=2,
  ecutwfc=29.39945797996531d00,
  ecutrho=293.9945797996531d00,
  nbnd=199,
  occupations='smearing',
  smearing='fd',
  degauss=0.007349864494991328d00,
  nspin=2,
  starting_magnetization(1)=0.0d00,
  starting_magnetization(2)=0.0d00,
  input_dft='BEEF-vdW',
  edir=3,
  emaxpos=0.9357788716235664d00,
  eopreg=0.025d00,
  eamp=0.0d00,
  nosym=.false.,
  noinv=.false.,
  nosym_evc=.false.,
  no_t_rev=.false.,
/
&ELECTRONS
  diagonalization='david',
  conv_thr=7.349864494991327e-08,
  mixing_beta=0.05d00,
  electron_maxstep=1000,
  startingpot='file',
  startingwfc='atomic',
/
&IONS
  ion_dynamics='ipi',
/
&CELL
  cell_dynamics='ipi',
/
CELL_PARAMETERS alat
    6.579727202290808d0     0.000000000000000d0     0.000000000000000d0
   -0.000775132442404d0     5.961596420607155d0     0.000000000000000d0
    0.000000000000000d0    -0.000000000000000d0    25.155947251439940d0
ATOMIC_SPECIES
Ti1 47.867d00 Ti.UPF
O1 15.999d00 O.UPF
ATOMIC_POSITIONS {crystal}
Ti1      0.000123603383822d0     0.499897385958537d0     0.238512187198856d0
Ti1      0.500142521004230d0     0.250038178055688d0     0.238522014307695d0
O1       0.000095322930372d0     0.000084774873452d0     0.317452257936818d0
O1       0.500112315057126d0     0.000084209992886d0     0.290342007718641d0
O1       0.698270105622955d0     0.250236102495782d0     0.369213011426276d0
O1       0.301995368073695d0     0.249987007385122d0     0.369214717028816d0
Ti1      0.500013595616249d0     0.499924746495756d0     0.363975762703100d0
Ti1      0.999953554304072d0     0.249953230928915d0     0.367875593971391d0
O1       0.500149864486167d0     0.000064762666528d0     0.453070961967098d0
O1       0.000148062163638d0     0.000085661332061d0     0.421856070173298d0
O1       0.195351783271916d0     0.251109224152897d0     0.503727807117785d0
O1       0.804940696945252d0     0.251106289055198d0     0.503724268744465d0
Ti1      0.000274880444680d0     0.500161923009665d0     0.496364043237726d0
Ti1      0.500355754637486d0     0.250330773930277d0     0.498616068850328d0
O1       0.000077679707325d0     0.000060410188066d0     0.583991548267760d0
O1       0.500137177743414d0     0.000057396445126d0     0.557642028596041d0
O1       0.692509607390018d0     0.252333598774501d0     0.643874787782720d0
O1       0.307625824069853d0     0.252321956197439d0     0.643860426515591d0
Ti1      0.500087701115525d0     0.500076360857907d0     0.627776385474791d0
Ti1      0.000070676318573d0     0.225817977239686d0     0.634112459022656d0
O1       0.500093721748991d0     0.000084921243389d0     0.186906639369252d0
O1       0.000077021962525d0     0.000048783494077d0     0.684651103877880d0
O1       0.198268504441574d0     0.250236248865719d0     0.238667392858710d0
O1       0.801993766892314d0     0.249987153755059d0     0.238669098461250d0
Ti1      0.000123603383822d0     0.999897385958537d0     0.238512187198856d0
Ti1      0.500142521004230d0     0.750038178055688d0     0.238522014307695d0
O1       0.000095322930372d0     0.500084774873452d0     0.317452257936818d0
O1       0.500112315057126d0     0.500084209992886d0     0.290342007718641d0
O1       0.698270105622955d0     0.750236102495782d0     0.369213011426276d0
O1       0.301995368073695d0     0.749987007385122d0     0.369214717028816d0
Ti1      0.499989344057160d0     0.999923226235427d0     0.363912574887993d0
Ti1      0.999950689548172d0     0.750332114779954d0     0.367869311895273d0
O1       0.500145204086294d0     0.500066020600565d0     0.452903516840017d0
O1       0.000162388763976d0     0.500090721444943d0     0.422401237239924d0
O1       0.195352745314388d0     0.749058008782792d0     0.503729583141809d0
O1       0.804935591503653d0     0.749024412912844d0     0.503723237109434d0
Ti1      0.000318234517472d0     0.000169497052676d0     0.496035453343161d0
Ti1      0.500372731559201d0     0.749821885510475d0     0.498617282281615d0
O1       0.000073981712445d0     0.500052785210432d0     0.597257910937831d0
O1       0.500131796788732d0     0.500055030447546d0     0.556443023453772d0
O1       0.692506611050137d0     0.747789011917929d0     0.643870816446444d0
O1       0.307620763793851d0     0.747784747556822d0     0.643862536240994d0
Ti1      0.500088664954347d0     0.000075954991935d0     0.629348698219164d0
Ti1      0.000097826314312d0     0.774274595084005d0     0.634108412427456d0
O1       0.500093721748991d0     0.500084921243389d0     0.186906639369252d0
O1       0.198268504441574d0     0.750236248865719d0     0.238269872546712d0
O1       0.801993766892315d0     0.749987153755059d0     0.238669098461250d0
K_POINTS automatic
4 4 1  0 0 0 
