&CONTROL
  calculation='relax',
  prefix='calc',
  pseudo_dir='/storage/coda1/p-amedford6/0/shared/rich_project_chbe-medford/medford-share/data/pseudos_module/espresso/nninc/pbe/van',
  outdir='.',
  tefield=.true.,
  dipfield=.true.,
  tprnfor=.true.,
  disk_io='none',
/
&SYSTEM
  ibrav=0,
  celldm(1)=1.8897261245650618d0,
  nat=55,
  ntyp=3,
  ecutwfc=29.39945797996531d00,
  ecutrho=293.9945797996531d00,
  nbnd=224,
  occupations='smearing',
  smearing='fd',
  degauss=0.007349864494991328d00,
  input_dft='BEEF-vdW',
  edir=3,
  emaxpos=0.023470358527736712d00,
  eopreg=0.025d00,
  eamp=0.0d00,
  nosym=.false.,
  noinv=.false.,
  nosym_evc=.false.,
  no_t_rev=.false.,
/
&ELECTRONS
  diagonalization='david',
  conv_thr=7.349864494991327e-08,
  mixing_beta=0.05d00,
  electron_maxstep=1000,
  startingpot='file',
  startingwfc='atomic',
/
&IONS
  ion_dynamics='ipi',
/
&CELL
  cell_dynamics='ipi',
/
CELL_PARAMETERS alat
    6.579727202290808d0     0.000000000000000d0     0.000000000000000d0
   -0.001162698663605d0     8.942394630910734d0     0.000000000000000d0
    0.000000000000000d0    -0.000000000000000d0    25.155947251439940d0
ATOMIC_SPECIES
O1 15.999d00 O.UPF
Ti1 47.867d00 Ti.UPF
H1 1.008d00 H.UPF
ATOMIC_POSITIONS {crystal}
O1       0.000111781329999d0     0.000056172521910d0     0.421099706309416d0
O1       0.500130327285924d0     0.998928713225165d0     0.554791420407978d0
O1       0.000092808752410d0     0.011021777000638d0     0.691341219735672d0
O1       0.000095322930372d0     0.000056516582301d0     0.317452257936818d0
O1       0.500147081612698d0     0.999090837772260d0     0.445420138542448d0
O1       0.000121027824179d0     0.998948276446794d0     0.582101837949230d0
O1       0.301995368073695d0     0.166658004923414d0     0.369214717028816d0
O1       0.797135019867404d0     0.181261441888762d0     0.501449128624332d0
O1       0.301917476757817d0     0.172377595823896d0     0.642245512791662d0
Ti1      0.000141987277103d0     0.166692151230444d0     0.369279712898471d0
Ti1      0.500243003574673d0     0.151655497587273d0     0.498289416474603d0
Ti1      0.000101398939047d0     0.150641049432433d0     0.627234322115301d0
O1       0.698270105622955d0     0.166824068330521d0     0.369213011426276d0
O1       0.203145243078499d0     0.181163574862974d0     0.501437468995265d0
O1       0.698240247627639d0     0.172387799784247d0     0.642254266287498d0
Ti1      0.500123069656695d0     0.333264956499010d0     0.369269885789632d0
Ti1      0.000184308370679d0     0.318359001264261d0     0.494157824580485d0
Ti1      0.500045012660696d0     0.333001405283640d0     0.627105729530469d0
O1       0.000111781329999d0     0.333389505855244d0     0.421099706309416d0
O1       0.500078822103172d0     0.332799226539045d0     0.554912880556780d0
O1       0.000095322930372d0     0.333389849915635d0     0.317452257936818d0
O1       0.500117959123064d0     0.332156464392529d0     0.445359857250102d0
O1       0.000089656668867d0     0.335660816781678d0     0.591330899541317d0
O1       0.301995368073695d0     0.499991338256748d0     0.369214717028816d0
O1       0.798005012910570d0     0.511871019693421d0     0.501329821937129d0
O1       0.301693405017326d0     0.496011233914312d0     0.642125616295497d0
Ti1      0.000141987277103d0     0.500025484563778d0     0.369279712898471d0
Ti1      0.500206445050192d0     0.483593582903275d0     0.498376782296369d0
Ti1      0.000049247112481d0     0.520908893577039d0     0.626961391878459d0
O1       0.698270105622955d0     0.500157401663855d0     0.369213011426276d0
O1       0.202255790707352d0     0.511809369087304d0     0.501325136441537d0
O1       0.698462795565971d0     0.496031498274213d0     0.642128610510802d0
Ti1      0.500123069656695d0     0.666598289832344d0     0.369269885789632d0
Ti1      0.000142149723612d0     0.651176517782597d0     0.494806022962155d0
Ti1      0.500094907033962d0     0.667982763057227d0     0.626465804764080d0
O1       0.000111781329999d0     0.666722839188577d0     0.421099706309416d0
O1       0.500102776615604d0     0.665674956508655d0     0.554733442927145d0
O1       0.000104633603201d0     0.659004360654469d0     0.691351322722570d0
O1       0.000095322930372d0     0.666723183248968d0     0.317452257936818d0
O1       0.500128616244254d0     0.664725658045725d0     0.445410846875718d0
O1       0.000116644710970d0     0.675304127469547d0     0.582253822296860d0
O1       0.301995368073695d0     0.833324671590081d0     0.369214717028816d0
O1       0.796628117170357d0     0.845560611079326d0     0.500346711184268d0
O1       0.304067798549186d0     0.834168011704407d0     0.640389007044372d0
Ti1      0.000141987277103d0     0.833358817897111d0     0.369279712898471d0
Ti1      0.500245335771388d0     0.817696209803293d0     0.497893851466745d0
Ti1      0.000155811916559d0     0.834813897477074d0     0.640193698362745d0
O1       0.698270105622955d0     0.833490734997188d0     0.369213011426276d0
O1       0.203705604222014d0     0.845508368050019d0     0.500337611391972d0
O1       0.696155746954575d0     0.834167801426419d0     0.640383927196790d0
Ti1      0.500123069656695d0     0.999931623165677d0     0.369269885789632d0
Ti1      0.000196411804970d0     0.982747464661087d0     0.495089747168237d0
Ti1      0.500164551360118d0     0.997928316349849d0     0.626457278578230d0
H1       0.998420263938092d0     0.647691750954765d0     0.729442281310831d0
H1       0.999874409623688d0     0.020369254896237d0     0.729488459118655d0
K_POINTS automatic
4 4 1  0 0 0 
