&CONTROL
  calculation='relax',
  prefix='calc',
  pseudo_dir='/storage/coda1/p-amedford6/0/shared/rich_project_chbe-medford/medford-share/data/pseudos_module/espresso/nninc/pbe/van',
  outdir='.',
  tefield=.true.,
  dipfield=.true.,
  tprnfor=.true.,
  disk_io='none',
/
&SYSTEM
  ibrav=0,
  celldm(1)=1.8897261245650618d0,
  nat=55,
  ntyp=4,
  ecutwfc=29.39945797996531d00,
  ecutrho=293.9945797996531d00,
  nbnd=209,
  occupations='smearing',
  smearing='fd',
  degauss=0.007349864494991328d00,
  input_dft='BEEF-vdW',
  edir=3,
  emaxpos=0.9743870979867422d00,
  eopreg=0.025d00,
  eamp=0.0d00,
  nosym=.false.,
  noinv=.false.,
  nosym_evc=.false.,
  no_t_rev=.false.,
/
&ELECTRONS
  diagonalization='david',
  conv_thr=7.349864494991327e-08,
  mixing_beta=0.05d00,
  electron_maxstep=1000,
  startingpot='file',
  startingwfc='atomic',
/
&IONS
  ion_dynamics='ipi',
/
&CELL
  cell_dynamics='ipi',
/
CELL_PARAMETERS alat
    6.579727202290808d0     0.000000000000000d0     0.000000000000000d0
   -0.000775132442404d0     5.961596420607155d0     0.000000000000000d0
    0.000000000000000d0    -0.000000000000000d0    25.155947251439940d0
ATOMIC_SPECIES
Ti1 47.867d00 Ti.UPF
O1 15.999d00 O.UPF
C1 12.011d00 C.UPF
H1 1.008d00 H.UPF
ATOMIC_POSITIONS {crystal}
Ti1      0.000123603383822d0     0.499897385958537d0     0.238512187198856d0
Ti1      0.500142521004230d0     0.250038178055688d0     0.238522014307695d0
O1       0.000095322930372d0     0.000084774873452d0     0.317452257936818d0
O1       0.500112315057126d0     0.000084209992886d0     0.290342007718641d0
O1       0.698270105622955d0     0.250236102495782d0     0.369213011426276d0
O1       0.301995368073695d0     0.249987007385122d0     0.369214717028816d0
Ti1      0.498870474169449d0     0.510587414317395d0     0.364222401243849d0
Ti1      0.997022544950616d0     0.270607838559922d0     0.371894068209132d0
O1       0.500709459784939d0     0.004003017519197d0     0.451010995247838d0
O1       0.000958572846363d0     0.002316940193277d0     0.421452583687439d0
O1       0.196870571097149d0     0.253296460816835d0     0.502637555414464d0
O1       0.805397592809780d0     0.254095861449990d0     0.501802171865944d0
Ti1      0.004063821331685d0     0.505006026953483d0     0.506817745851685d0
Ti1      0.506677346280201d0     0.254420983098972d0     0.496695589387815d0
O1       0.994700156984320d0     0.003187589981008d0     0.584287323482231d0
O1       0.504948994322443d0     0.004346570254358d0     0.554811494898098d0
O1       0.689526648596718d0     0.254433937416596d0     0.641000627502331d0
O1       0.307311891134145d0     0.260128302886968d0     0.636120561873484d0
Ti1      0.497698444291845d0     0.502900820170194d0     0.623593525759251d0
Ti1      0.003095314486042d0     0.232651356351658d0     0.638891281005040d0
O1       0.500093721748991d0     0.000084921243389d0     0.186906639369252d0
O1       0.014066315485453d0     0.002517811534947d0     0.685172528968246d0
O1       0.198268504441574d0     0.250236248865719d0     0.238667392858710d0
O1       0.801993766892314d0     0.249987153755059d0     0.238669098461250d0
Ti1      0.000123603383822d0     0.999897385958537d0     0.238512187198856d0
Ti1      0.500142521004230d0     0.750038178055688d0     0.238522014307695d0
O1       0.000095322930372d0     0.500084774873452d0     0.317452257936818d0
O1       0.500112315057126d0     0.500084209992886d0     0.290342007718641d0
O1       0.698270105622955d0     0.750236102495782d0     0.369213011426276d0
O1       0.301995368073695d0     0.749987007385122d0     0.369214717028816d0
Ti1      0.496514728635890d0     0.010948911349162d0     0.363951852784648d0
Ti1      0.997300758449301d0     0.762433206295878d0     0.368497346510932d0
O1       0.500366907637282d0     0.504096275688414d0     0.451101383661662d0
O1       0.000983938543800d0     0.502388798151790d0     0.420660618080497d0
O1       0.197046126898244d0     0.754940938732898d0     0.502518703327879d0
O1       0.805011027325728d0     0.753900164032856d0     0.501630341700376d0
Ti1      0.004972495362619d0     0.004958508497812d0     0.497842206817812d0
Ti1      0.506792112028941d0     0.756741991646475d0     0.496834731659209d0
O1       0.999046674348069d0     0.507879583480212d0     0.583450994531415d0
O1       0.504763421675376d0     0.503353853445638d0     0.552620540982526d0
O1       0.691722876425759d0     0.750466070334226d0     0.638834844782920d0
O1       0.308326343213754d0     0.746805343920591d0     0.635614132976270d0
Ti1      0.506540001655006d0     0.001980664102071d0     0.627745054794627d0
Ti1      0.001551005663726d0     0.757769082959629d0     0.632333080100603d0
O1       0.500093721748991d0     0.500084921243389d0     0.186906639369252d0
O1       0.198268504441574d0     0.750236248865719d0     0.238667392858710d0
O1       0.801993766892315d0     0.749987153755059d0     0.238669098461250d0
C1       0.913600694038423d0     0.511482321264016d0     0.740132887856587d0
O1       0.999305284233876d0     0.503440338115710d0     0.688454320941559d0
H1       0.748135921586106d0     0.532325794623039d0     0.737994388570044d0
H1       0.948088037683080d0     0.354544848911829d0     0.761520093559909d0
H1       0.975935738313069d0     0.654652142135575d0     0.761867556604232d0
O1       0.440263206309550d0     0.985940091592539d0     0.722139846385416d0
H1       0.481936400180632d0     0.123139895092002d0     0.739722970101300d0
H1       0.291353034961885d0     0.991296634298078d0     0.720271407060954d0
K_POINTS automatic
4 4 1  0 0 0 
