&CONTROL
  calculation='relax',
  prefix='calc',
  pseudo_dir='/storage/coda1/p-amedford6/0/shared/rich_project_chbe-medford/medford-share/data/pseudos_module/espresso/nninc/pbe/van',
  outdir='.',
  tefield=.true.,
  dipfield=.true.,
  tprnfor=.true.,
  disk_io='none',
/
&SYSTEM
  ibrav=0,
  celldm(1)=1.8897261245650618d0,
  nat=50,
  ntyp=4,
  ecutwfc=29.39945797996531d00,
  ecutrho=293.9945797996531d00,
  nbnd=204,
  occupations='smearing',
  smearing='fd',
  degauss=0.007349864494991328d00,
  input_dft='BEEF-vdW',
  edir=3,
  emaxpos=0.9729452636014475d00,
  eopreg=0.025d00,
  eamp=0.0d00,
  nosym=.false.,
  noinv=.false.,
  nosym_evc=.false.,
  no_t_rev=.false.,
/
&ELECTRONS
  diagonalization='david',
  conv_thr=7.349864494991327e-08,
  mixing_beta=0.05d00,
  electron_maxstep=1000,
  startingpot='file',
  startingwfc='atomic',
/
&IONS
  ion_dynamics='ipi',
/
&CELL
  cell_dynamics='ipi',
/
CELL_PARAMETERS alat
    6.579727202290808d0     0.000000000000000d0     0.000000000000000d0
   -0.000775132442404d0     5.961596420607155d0     0.000000000000000d0
    0.000000000000000d0    -0.000000000000000d0    25.155947251439940d0
ATOMIC_SPECIES
C1 12.011d00 C.UPF
H1 1.008d00 H.UPF
O1 15.999d00 O.UPF
Ti1 47.867d00 Ti.UPF
ATOMIC_POSITIONS {crystal}
C1       0.966479607550934d0     0.509027592040126d0     0.743327484698601d0
H1       0.956393270145593d0     0.684836979230433d0     0.758983887833643d0
O1       0.500093721748991d0     0.000084921243389d0     0.186906639369252d0
O1       0.500093721748991d0     0.500084921243389d0     0.186906639369252d0
O1       0.198268504441574d0     0.250236248865719d0     0.238667392858710d0
O1       0.198268504441574d0     0.750236248865719d0     0.238667392858710d0
O1       0.801993766892314d0     0.249987153755059d0     0.238669098461250d0
O1       0.801993766892315d0     0.749987153755059d0     0.238669098461250d0
O1       0.500112315057126d0     0.000084209992886d0     0.290342007718641d0
O1       0.500112315057126d0     0.500084209992886d0     0.290342007718641d0
O1       0.000095322930372d0     0.000084774873452d0     0.317452257936818d0
O1       0.000095322930372d0     0.500084774873452d0     0.317452257936818d0
O1       0.698270105622955d0     0.250236102495782d0     0.369213011426276d0
O1       0.698270105622955d0     0.750236102495782d0     0.369213011426276d0
O1       0.301995368073695d0     0.249987007385122d0     0.369214717028816d0
O1       0.301995368073695d0     0.749987007385122d0     0.369214717028816d0
O1       0.001361188647501d0     0.001521929935180d0     0.421613841930909d0
O1       0.001291180755182d0     0.501982740275747d0     0.420760061153776d0
O1       0.502630545847945d0     0.503017370090494d0     0.451409990123924d0
O1       0.502536468525528d0     0.001717077562000d0     0.451458376591022d0
O1       0.198567238863427d0     0.752852064003364d0     0.502864136401105d0
O1       0.198448524628396d0     0.252202000958350d0     0.502307731259910d0
O1       0.806373792415056d0     0.752949592504071d0     0.503022996809884d0
O1       0.806570296503229d0     0.252216698097334d0     0.502434217167284d0
O1       0.502865476806844d0     0.499606538983461d0     0.554088795429741d0
O1       0.502931568517803d0     0.002987262080429d0     0.555023864515902d0
O1       0.004346702089202d0     0.007210331221020d0     0.584908740410911d0
O1       0.003862902453245d0     0.502119326979488d0     0.584479869685179d0
O1       0.693700108186051d0     0.748483622603231d0     0.638838727366473d0
O1       0.694658184665905d0     0.251458996449535d0     0.640881661253620d0
O1       0.312944162162278d0     0.252446679833447d0     0.641537124780828d0
O1       0.312784586853799d0     0.747607180703321d0     0.638953396998000d0
O1       0.003979266212767d0     0.989795787305668d0     0.685075069687388d0
O1       0.998784150988180d0     0.516280175174511d0     0.693694859719114d0
Ti1      0.000123603383822d0     0.499897385958537d0     0.238512187198856d0
Ti1      0.000123603383822d0     0.999897385958537d0     0.238512187198856d0
Ti1      0.500142521004230d0     0.250038178055688d0     0.238522014307695d0
Ti1      0.500142521004230d0     0.750038178055688d0     0.238522014307695d0
Ti1      0.502668566636807d0     0.008603477840007d0     0.363872656634621d0
Ti1      0.504265819604413d0     0.508180386469351d0     0.364038094605394d0
Ti1      0.004953138578988d0     0.760187007471622d0     0.367851590851548d0
Ti1      0.004457204585636d0     0.270473518365123d0     0.372175205395198d0
Ti1      0.004854340389503d0     0.002364859850064d0     0.496938634799433d0
Ti1      0.505635849329229d0     0.753605634273202d0     0.497125151494510d0
Ti1      0.505535287406102d0     0.253863026373641d0     0.496745572653878d0
Ti1      0.004553122323168d0     0.501045439335360d0     0.507895408728076d0
Ti1      0.504263215977442d0     0.499684251829186d0     0.625471787260700d0
Ti1      0.505489152090834d0     0.000455761958805d0     0.626012282248674d0
Ti1      0.006824466235584d0     0.758068837779306d0     0.630080497132294d0
Ti1      0.005248765501184d0     0.220204503615185d0     0.642015314940797d0
K_POINTS automatic
4 4 1  0 0 0 
