&CONTROL
  calculation='relax',
  prefix='calc',
  pseudo_dir='/storage/coda1/p-amedford6/0/shared/rich_project_chbe-medford/medford-share/data/pseudos_module/espresso/nninc/pbe/van',
  outdir='.',
  tefield=.true.,
  dipfield=.true.,
  tprnfor=.true.,
  disk_io='none',
/
&SYSTEM
  ibrav=0,
  celldm(1)=1.8897261245650618d0,
  nat=54,
  ntyp=5,
  ecutwfc=29.39945797996531d00,
  ecutrho=293.9945797996531d00,
  nbnd=210,
  occupations='smearing',
  smearing='fd',
  degauss=0.007349864494991328d00,
  input_dft='BEEF-vdW',
  edir=3,
  emaxpos=0.9705261713954105d00,
  eopreg=0.025d00,
  eamp=0.0d00,
  nosym=.false.,
  noinv=.false.,
  nosym_evc=.false.,
  no_t_rev=.false.,
/
&ELECTRONS
  diagonalization='david',
  conv_thr=7.349864494991327e-08,
  mixing_beta=0.05d00,
  electron_maxstep=1000,
  startingpot='file',
  startingwfc='atomic',
/
&IONS
  ion_dynamics='ipi',
/
&CELL
  cell_dynamics='ipi',
/
CELL_PARAMETERS alat
    6.579727202290808d0     0.000000000000000d0     0.000000000000000d0
   -0.000775132442404d0     5.961596420607155d0     0.000000000000000d0
    0.000000000000000d0    -0.000000000000000d0    25.155947251439940d0
ATOMIC_SPECIES
Ti1 47.867d00 Ti.UPF
O1 15.999d00 O.UPF
C1 12.011d00 C.UPF
H1 1.008d00 H.UPF
N1 14.007d00 N.UPF
ATOMIC_POSITIONS {crystal}
Ti1      0.000123603383822d0     0.499897385958536d0     0.238512187198856d0
Ti1      0.500142521004230d0     0.250038178055688d0     0.238522014307695d0
O1       0.000095322930372d0     0.000084774873452d0     0.317452257936818d0
O1       0.500112315057126d0     0.000084209992886d0     0.290342007718641d0
O1       0.698270105622955d0     0.250236102495782d0     0.369213011426276d0
O1       0.301995368073695d0     0.249987007385122d0     0.369214717028816d0
Ti1      0.500198167309398d0     0.485761668506182d0     0.364758343030283d0
Ti1      0.000261424674789d0     0.248709163236136d0     0.368424970923767d0
O1       0.501397223401317d0     0.999597048176518d0     0.450863365096698d0
O1       0.001882992193933d0     0.999479849154423d0     0.422099495650131d0
O1       0.197455267669959d0     0.248889516686463d0     0.502011438855869d0
O1       0.804084740538336d0     0.249740208512612d0     0.501524017205347d0
Ti1      0.009227863665835d0     0.494129289037518d0     0.500980294561242d0
Ti1      0.512303938918651d0     0.246666445721947d0     0.497269205480788d0
O1       0.999861053866737d0     0.002692540474791d0     0.582364318557398d0
O1       0.503952540427193d0     0.001470988797334d0     0.554961378386654d0
O1       0.693280673633190d0     0.255185155219857d0     0.638241627254756d0
O1       0.309929311656692d0     0.261469107467128d0     0.636138588427746d0
Ti1      0.500968497432291d0     0.503936355306905d0     0.623360530834082d0
Ti1      0.007287728667582d0     0.255364363876881d0     0.628512795452458d0
O1       0.500093721748991d0     0.000084921243389d0     0.186906639369252d0
O1       0.011831832900431d0     0.001388565218326d0     0.684199262811029d0
O1       0.198268504441574d0     0.250236248865719d0     0.238667392858710d0
O1       0.801993766892314d0     0.249987153755059d0     0.238669098461250d0
Ti1      0.000123603383822d0     0.999897385958536d0     0.238512187198856d0
Ti1      0.500142521004230d0     0.750038178055688d0     0.238522014307695d0
O1       0.000095322930372d0     0.500084774873452d0     0.317452257936818d0
O1       0.500112315057126d0     0.500084209992886d0     0.290342007718641d0
O1       0.698270105622955d0     0.750236102495782d0     0.369213011426276d0
O1       0.301995368073695d0     0.749987007385122d0     0.369214717028816d0
Ti1      0.500001644927041d0     0.985370751416071d0     0.364779031055315d0
Ti1      0.000183276761494d0     0.748948988039575d0     0.368476322807288d0
O1       0.501653448809823d0     0.499981923543600d0     0.450964584757298d0
O1       0.001460782485842d0     0.499964783615161d0     0.422656139091726d0
O1       0.197239243087898d0     0.750091784507934d0     0.502310973153944d0
O1       0.804656232776955d0     0.751193330947630d0     0.501794821806387d0
Ti1      0.008281227618165d0     0.993364527382430d0     0.498444344140041d0
Ti1      0.512216448189216d0     0.749720557123732d0     0.496909667295125d0
O1       0.000419942989063d0     0.495479444527287d0     0.583123978424777d0
O1       0.503770456022151d0     0.501543148405564d0     0.552285490080725d0
O1       0.694372823719911d0     0.749607348526292d0     0.638418149226633d0
O1       0.310414580266514d0     0.745028633246094d0     0.637032984746350d0
Ti1      0.509317041810863d0     0.002192500537871d0     0.628681664464830d0
Ti1      0.004818890744087d0     0.780553298603000d0     0.638755783174469d0
O1       0.500093721748991d0     0.500084921243389d0     0.186906639369252d0
O1       0.198268504441574d0     0.750236248865719d0     0.238667392858710d0
O1       0.801993766892315d0     0.749987153755059d0     0.238669098461250d0
C1       0.006958065443318d0     0.493722034928767d0     0.701402754412853d0
H1       0.148546676218072d0     0.491359161065421d0     0.723774831390657d0
N1       0.850135682681699d0     0.467542000193903d0     0.731380897811119d0
N1       0.700498287856630d0     0.441156117132712d0     0.754145703421569d0
O1       0.464516169831288d0     0.996520775329934d0     0.720556850489697d0
H1       0.528557807546060d0     0.120850673716233d0     0.739222074387673d0
H1       0.318187320554422d0     0.010600502023592d0     0.725829659391082d0
K_POINTS automatic
4 4 1  0 0 0 
