&CONTROL
  calculation='relax',
  prefix='calc',
  pseudo_dir='/storage/coda1/p-amedford6/0/shared/rich_project_chbe-medford/medford-share/data/pseudos_module/espresso/nninc/pbe/van',
  outdir='.',
  tefield=.true.,
  dipfield=.true.,
  tprnfor=.true.,
  disk_io='none',
/
&SYSTEM
  ibrav=0,
  celldm(1)=1.8897261245650618d0,
  nat=59,
  ntyp=4,
  ecutwfc=29.39945797996531d00,
  ecutrho=293.9945797996531d00,
  nbnd=230,
  occupations='smearing',
  smearing='fd',
  degauss=0.007349864494991328d00,
  input_dft='BEEF-vdW',
  edir=3,
  emaxpos=0.03253648181272939d00,
  eopreg=0.025d00,
  eamp=0.0d00,
  nosym=.false.,
  noinv=.false.,
  nosym_evc=.false.,
  no_t_rev=.false.,
/
&ELECTRONS
  diagonalization='david',
  conv_thr=7.349864494991327e-08,
  mixing_beta=0.05d00,
  electron_maxstep=1000,
  startingpot='file',
  startingwfc='atomic',
/
&IONS
  ion_dynamics='ipi',
/
&CELL
  cell_dynamics='ipi',
/
CELL_PARAMETERS alat
    6.579727202290808d0     0.000000000000000d0     0.000000000000000d0
   -0.001162698663605d0     8.942394630910734d0     0.000000000000000d0
    0.000000000000000d0    -0.000000000000000d0    25.155947251439940d0
ATOMIC_SPECIES
O1 15.999d00 O.UPF
Ti1 47.867d00 Ti.UPF
H1 1.008d00 H.UPF
N1 14.007d00 N.UPF
ATOMIC_POSITIONS {crystal}
O1       0.000111781329999d0     0.000056172521910d0     0.421099706309416d0
O1       0.500068137433181d0     0.997421007003590d0     0.547838105233837d0
O1       0.000128016836065d0     0.999253017214029d0     0.682136069955865d0
O1       0.000095322930372d0     0.000056516582301d0     0.317452257936818d0
O1       0.500140653857134d0     0.998959196237049d0     0.443063210201484d0
O1       0.000187286457187d0     0.994782667660309d0     0.577702017506624d0
O1       0.301995368073695d0     0.166658004923414d0     0.369214717028816d0
O1       0.791630996630925d0     0.174086365420854d0     0.497982543628368d0
O1       0.309598567290710d0     0.157525135844701d0     0.633959863671861d0
Ti1      0.000141987277103d0     0.166692151230444d0     0.369279712898471d0
Ti1      0.500350913826492d0     0.144216789777649d0     0.494258083035063d0
Ti1      0.000094540287085d0     0.195517790610948d0     0.633986677729927d0
O1       0.698270105622955d0     0.166824068330521d0     0.369213011426276d0
O1       0.208765103201665d0     0.174034719602743d0     0.497971351757391d0
O1       0.690726095777768d0     0.157403754043142d0     0.633915395357231d0
Ti1      0.500123069656695d0     0.333264956499010d0     0.369269885789632d0
Ti1      0.000401775756217d0     0.308974657221937d0     0.498579544696990d0
Ti1      0.499895848712211d0     0.347758454181946d0     0.621733275717259d0
O1       0.000111781329999d0     0.333389505855244d0     0.421099706309416d0
O1       0.500134916268506d0     0.330198238568814d0     0.548455427514642d0
O1       0.000095322930372d0     0.333389849915635d0     0.317452257936818d0
O1       0.500174222627886d0     0.332974375724811d0     0.443883118265503d0
O1       0.000158319178299d0     0.328422836738070d0     0.577619802477962d0
O1       0.301995368073695d0     0.499991338256748d0     0.369214717028816d0
O1       0.793920100140063d0     0.507541679869549d0     0.498757737092472d0
O1       0.307834339288587d0     0.488453129672203d0     0.635755612316550d0
Ti1      0.000141987277103d0     0.500025484563778d0     0.369279712898471d0
Ti1      0.500381425699144d0     0.482365440501084d0     0.498271075598139d0
Ti1      0.999958253712831d0     0.524798935096698d0     0.638972570147172d0
O1       0.698270105622955d0     0.500157401663855d0     0.369213011426276d0
O1       0.206339922349400d0     0.507401774428602d0     0.498749263052883d0
O1       0.692194236631539d0     0.488361813596580d0     0.635780246683727d0
Ti1      0.500123069656695d0     0.666598289832344d0     0.369269885789632d0
Ti1      0.000315068252517d0     0.642210358449737d0     0.497340797117920d0
Ti1      0.500115407625190d0     0.681447714655865d0     0.647427860050590d0
O1       0.000111781329999d0     0.666722839188577d0     0.421099706309416d0
O1       0.500096649030730d0     0.659379691774808d0     0.548522647242699d0
O1       0.000005215287004d0     0.672298438212681d0     0.682281983417924d0
O1       0.000095322930372d0     0.666723183248968d0     0.317452257936818d0
O1       0.500113313377347d0     0.664122299550866d0     0.443980039181959d0
O1       0.000095041404276d0     0.670189925877611d0     0.579093157890565d0
O1       0.301995368073695d0     0.833324671590081d0     0.369214717028816d0
O1       0.794388555853734d0     0.839226568794644d0     0.498514984205256d0
O1       0.307803221942397d0     0.831446668001506d0     0.636167917951364d0
Ti1      0.000141987277103d0     0.833358817897111d0     0.369279712898471d0
Ti1      0.500112580178001d0     0.803659645112616d0     0.500906956351742d0
Ti1      0.000161244229430d0     0.844766465394882d0     0.626025363423343d0
O1       0.698270105622955d0     0.833490734997188d0     0.369213011426276d0
O1       0.205744018423576d0     0.839127437193286d0     0.498506939481804d0
O1       0.692358994325192d0     0.831509683030507d0     0.636150132298868d0
Ti1      0.500123069656695d0     0.999931623165677d0     0.369269885789632d0
Ti1      0.000085487598427d0     0.974252505190060d0     0.496329621531641d0
Ti1      0.500168842908583d0     0.011239793194285d0     0.621260988448241d0
H1       0.999887738064015d0     0.350594767659126d0     0.726225181278283d0
H1       0.999959184733922d0     0.983222179037562d0     0.719973439128316d0
N1       0.000038248702624d0     0.332312478715988d0     0.686414592070400d0
N1       0.501621940893545d0     0.670081597917186d0     0.722694435574863d0
H1       0.499931531560256d0     0.573296991021612d0     0.743543034256490d0
H1       0.500039967007826d0     0.758843275328954d0     0.747620705688640d0
K_POINTS automatic
4 4 1  0 0 0 
