&CONTROL
  calculation='relax',
  prefix='calc',
  pseudo_dir='/storage/coda1/p-amedford6/0/shared/rich_project_chbe-medford/medford-share/data/pseudos_module/espresso/nninc/pbe/van',
  outdir='.',
  tefield=.true.,
  dipfield=.true.,
  tprnfor=.true.,
  disk_io='none',
/
&SYSTEM
  ibrav=0,
  celldm(1)=1.8897261245650618d0,
  nat=55,
  ntyp=5,
  ecutwfc=29.39945797996531d00,
  ecutrho=293.9945797996531d00,
  nbnd=208,
  occupations='smearing',
  smearing='fd',
  degauss=0.007349864494991328d00,
  input_dft='BEEF-vdW',
  edir=3,
  emaxpos=0.0025190819934399755d00,
  eopreg=0.025d00,
  eamp=0.0d00,
  nosym=.false.,
  noinv=.false.,
  nosym_evc=.false.,
  no_t_rev=.false.,
/
&ELECTRONS
  diagonalization='david',
  conv_thr=7.349864494991327e-08,
  mixing_beta=0.05d00,
  electron_maxstep=1000,
  startingwfc='atomic',
/
&IONS
  ion_dynamics='ipi',
/
&CELL
  cell_dynamics='ipi',
/
CELL_PARAMETERS alat
    6.579727202290808d0     0.000000000000000d0     0.000000000000000d0
   -0.000775132442404d0     5.961596420607155d0     0.000000000000000d0
    0.000000000000000d0    -0.000000000000000d0    25.155947251439940d0
ATOMIC_SPECIES
Ti1 47.867d00 Ti.UPF
O1 15.999d00 O.UPF
N1 14.007d00 N.UPF
C1 12.011d00 C.UPF
H1 1.008d00 H.UPF
ATOMIC_POSITIONS {crystal}
Ti1      0.000123603383822d0     0.499897385958536d0     0.238512187198856d0
Ti1      0.500142521004230d0     0.250038178055688d0     0.238522014307695d0
O1       0.000095322930372d0     0.000084774873452d0     0.317452257936818d0
O1       0.500112315057126d0     0.000084209992886d0     0.290342007718641d0
O1       0.698270105622955d0     0.250236102495782d0     0.369213011426276d0
O1       0.301995368073695d0     0.249987007385122d0     0.369214717028816d0
Ti1      0.500198167309398d0     0.485761668506182d0     0.364758343030283d0
Ti1      0.000261424674789d0     0.248709163236136d0     0.368424970923767d0
O1       0.492541495123839d0     0.997470695195404d0     0.450997100930708d0
O1       0.001882992193933d0     0.999479849154423d0     0.422099495650131d0
O1       0.189613023558192d0     0.246941758501731d0     0.503501768594857d0
O1       0.795370731781153d0     0.247144152660224d0     0.500706690408431d0
Ti1      0.002130854742625d0     0.503740935143170d0     0.501753448254899d0
Ti1      0.507613498749490d0     0.245641152571941d0     0.496509067848633d0
O1       0.979870478601763d0     0.000145960710437d0     0.583165325143241d0
O1       0.498120665829378d0     0.997993170195137d0     0.553858803254980d0
O1       0.669975647855963d0     0.254674937668249d0     0.640498755087449d0
O1       0.293165294080267d0     0.251694221567335d0     0.636710547579611d0
Ti1      0.480877395838204d0     0.500601037287796d0     0.624856728190099d0
Ti1      0.991351481071653d0     0.255371499630338d0     0.629430694156915d0
O1       0.500093721748991d0     0.000084921243389d0     0.186906639369252d0
O1       0.989323312431755d0     0.004929566443039d0     0.685245898454539d0
O1       0.198268504441574d0     0.250236248865719d0     0.238667392858710d0
O1       0.801993766892314d0     0.249987153755059d0     0.238669098461250d0
Ti1      0.000123603383822d0     0.999897385958536d0     0.238512187198856d0
Ti1      0.500142521004230d0     0.750038178055688d0     0.238522014307695d0
O1       0.000095322930372d0     0.500084774873452d0     0.317452257936818d0
O1       0.500112315057126d0     0.500084209992886d0     0.290342007718641d0
O1       0.698270105622955d0     0.750236102495782d0     0.369213011426276d0
O1       0.301995368073695d0     0.749987007385122d0     0.369214717028816d0
Ti1      0.500001644927041d0     0.985370751416071d0     0.364779031055315d0
Ti1      0.000183276761494d0     0.748948988039575d0     0.368476322807288d0
O1       0.492427053072074d0     0.496804595783761d0     0.450832124504397d0
O1       0.001460782485842d0     0.499964783615161d0     0.422656139091726d0
O1       0.189124058964962d0     0.749415765395185d0     0.503875450478658d0
O1       0.796008530904611d0     0.747167561748502d0     0.500806445622453d0
Ti1      0.003914419112832d0     0.001507225177408d0     0.499715440525174d0
Ti1      0.507568710779840d0     0.745738073252498d0     0.496177594648701d0
O1       0.983410647737043d0     0.492829417727693d0     0.582506462335924d0
O1       0.494466192151026d0     0.499246746316204d0     0.553559019382392d0
O1       0.672198807895821d0     0.749317640785224d0     0.641303136180682d0
O1       0.294027351010400d0     0.752006903431618d0     0.637959830496705d0
Ti1      0.494072151309600d0     0.000459136870649d0     0.625187352892457d0
Ti1      0.989803117511096d0     0.779724188534861d0     0.641516404219581d0
O1       0.500093721748991d0     0.500084921243389d0     0.186906639369252d0
O1       0.198268504441574d0     0.750236248865719d0     0.238667392858710d0
O1       0.801993766892315d0     0.749987153755059d0     0.238669098461250d0
N1       0.119284505420841d0     0.475040814754171d0     0.737493066420567d0
N1       0.978035800667024d0     0.492197183362771d0     0.693911637493927d0
C1       0.058021478593400d0     0.614723319986664d0     0.783364096506511d0
H1       0.925462415453879d0     0.715603552541422d0     0.773223740027107d0
H1       0.020854853364564d0     0.512616811324534d0     0.818131524617628d0
H1       0.179202154654088d0     0.731154714875958d0     0.793936013796393d0
H1       0.121544783672708d0     0.311001198403141d0     0.748558927201475d0
H1       0.834326917141590d0     0.480166411212555d0     0.708933408979537d0
K_POINTS automatic
4 4 1  0 0 0 
