&CONTROL
  calculation='relax',
  prefix='calc',
  pseudo_dir='/storage/coda1/p-amedford6/0/shared/rich_project_chbe-medford/medford-share/data/pseudos_module/espresso/nninc/pbe/van',
  outdir='.',
  tefield=.true.,
  dipfield=.true.,
  tprnfor=.true.,
  disk_io='none',
/
&SYSTEM
  ibrav=0,
  celldm(1)=1.8897261245650618d0,
  nat=56,
  ntyp=5,
  ecutwfc=29.39945797996531d00,
  ecutrho=293.9945797996531d00,
  nbnd=209,
  occupations='smearing',
  smearing='fd',
  degauss=0.007349864494991328d00,
  input_dft='BEEF-vdW',
  edir=3,
  emaxpos=0.0571730772857888d00,
  eopreg=0.025d00,
  eamp=0.0d00,
  nosym=.false.,
  noinv=.false.,
  nosym_evc=.false.,
  no_t_rev=.false.,
/
&ELECTRONS
  diagonalization='david',
  conv_thr=7.349864494991327e-08,
  mixing_beta=0.05d00,
  electron_maxstep=1000,
  startingpot='file',
  startingwfc='atomic',
/
&IONS
  ion_dynamics='ipi',
/
&CELL
  cell_dynamics='ipi',
/
CELL_PARAMETERS alat
    6.579727202290808d0     0.000000000000000d0     0.000000000000000d0
   -0.000775132442404d0     5.961596420607155d0     0.000000000000000d0
    0.000000000000000d0    -0.000000000000000d0    25.155947251439940d0
ATOMIC_SPECIES
Ti1 47.867d00 Ti.UPF
O1 15.999d00 O.UPF
N1 14.007d00 N.UPF
C1 12.011d00 C.UPF
H1 1.008d00 H.UPF
ATOMIC_POSITIONS {crystal}
Ti1      0.000123603383822d0     0.499897385958536d0     0.238512187198856d0
Ti1      0.500142521004230d0     0.250038178055688d0     0.238522014307695d0
O1       0.000095322930372d0     0.000084774873452d0     0.317452257936818d0
O1       0.500112315057126d0     0.000084209992886d0     0.290342007718641d0
O1       0.698270105622955d0     0.250236102495782d0     0.369213011426276d0
O1       0.301995368073695d0     0.249987007385122d0     0.369214717028816d0
Ti1      0.500198167309398d0     0.485761668506182d0     0.364758343030283d0
Ti1      0.000261424674789d0     0.248709163236136d0     0.368424970923767d0
O1       0.500254687481874d0     0.002272382602498d0     0.449242018932983d0
O1       0.001882992193933d0     0.999479849154423d0     0.422099495650131d0
O1       0.201623102530684d0     0.253502948914155d0     0.501803815860066d0
O1       0.806119616835087d0     0.253574141512132d0     0.502473779645510d0
Ti1      0.985207992354436d0     0.501984420733743d0     0.507632811148555d0
Ti1      0.481901604881270d0     0.252398590639944d0     0.495722961377059d0
O1       0.004041557254204d0     0.000305029232222d0     0.580471057526043d0
O1       0.502726101817925d0     0.003880378262078d0     0.551935177923658d0
O1       0.690501043287138d0     0.257598505193608d0     0.638348345223343d0
O1       0.317962909599748d0     0.257574764599441d0     0.638425710098938d0
Ti1      0.504033274971604d0     0.506488380120611d0     0.623832533113428d0
Ti1      0.002562980567867d0     0.267681006199510d0     0.640180796279701d0
O1       0.500093721748991d0     0.000084921243389d0     0.186906639369252d0
O1       0.004452565417551d0     0.009321567618615d0     0.684297133421764d0
O1       0.198268504441574d0     0.250236248865719d0     0.238667392858710d0
O1       0.801993766892314d0     0.249987153755059d0     0.238669098461250d0
Ti1      0.000123603383822d0     0.999897385958536d0     0.238512187198856d0
Ti1      0.500142521004230d0     0.750038178055688d0     0.238522014307695d0
O1       0.000095322930372d0     0.500084774873452d0     0.317452257936818d0
O1       0.500112315057126d0     0.500084209992886d0     0.290342007718641d0
O1       0.698270105622955d0     0.750236102495782d0     0.369213011426276d0
O1       0.301995368073695d0     0.749987007385122d0     0.369214717028816d0
Ti1      0.500001644927041d0     0.985370751416071d0     0.364779031055315d0
Ti1      0.000183276761494d0     0.748948988039575d0     0.368476322807288d0
O1       0.500668584214868d0     0.502229821596717d0     0.449255051158906d0
O1       0.001460782485842d0     0.499964783615161d0     0.422656139091726d0
O1       0.201694835556537d0     0.751128130937386d0     0.501725435404226d0
O1       0.806256538004496d0     0.750290108384023d0     0.502417566205003d0
Ti1      0.989447319673856d0     0.001743708497128d0     0.508115816888726d0
Ti1      0.481912594825107d0     0.752229846355520d0     0.495806109701266d0
O1       0.000731344549213d0     0.500819545947900d0     0.583208737922768d0
O1       0.502395813739132d0     0.504018231212987d0     0.552035028206432d0
O1       0.691059339507181d0     0.757840689791537d0     0.638310350853316d0
O1       0.317929532112632d0     0.757962700628388d0     0.638499127359455d0
Ti1      0.503488565131767d0     0.006523671709406d0     0.623921835443820d0
Ti1      0.003000387699887d0     0.766495447506399d0     0.641976118049105d0
O1       0.500093721748991d0     0.500084921243389d0     0.186906639369252d0
O1       0.198268504441574d0     0.750236248865719d0     0.238667392858710d0
O1       0.801993766892315d0     0.749987153755059d0     0.238669098461250d0
N1       0.010056552659781d0     0.506387092262787d0     0.689412786213137d0
N1       0.968330152626124d0     0.432133285542074d0     0.900075768327917d0
C1       0.047632386932585d0     0.503338750776592d0     0.745981046601442d0
H1       0.044580083930254d0     0.672073771205594d0     0.763120716071212d0
H1       0.934817403872825d0     0.399991337188219d0     0.766640650717818d0
H1       0.196987763516055d0     0.428667763451925d0     0.754399172117623d0
H1       0.905206112419445d0     0.534147539777692d0     0.927439515202325d0
H1       0.001535500832091d0     0.286064301235353d0     0.918860756166388d0
H1       0.102265109780165d0     0.501825308029200d0     0.888850665415347d0
K_POINTS automatic
4 4 1  0 0 0 
