&CONTROL
  calculation='relax',
  prefix='calc',
  pseudo_dir='/storage/coda1/p-amedford6/0/shared/rich_project_chbe-medford/medford-share/data/pseudos_module/espresso/nninc/pbe/van',
  outdir='.',
  tefield=.true.,
  dipfield=.true.,
  tprnfor=.true.,
  disk_io='none',
/
&SYSTEM
  ibrav=0,
  celldm(1)=1.8897261245650618d0,
  nat=54,
  ntyp=5,
  ecutwfc=29.39945797996531d00,
  ecutrho=293.9945797996531d00,
  nbnd=208,
  occupations='smearing',
  smearing='fd',
  degauss=0.007349864494991328d00,
  input_dft='BEEF-vdW',
  edir=3,
  emaxpos=0.9942971646513561d00,
  eopreg=0.025d00,
  eamp=0.0d00,
  nosym=.false.,
  noinv=.false.,
  nosym_evc=.false.,
  no_t_rev=.false.,
/
&ELECTRONS
  diagonalization='david',
  conv_thr=7.349864494991327e-08,
  mixing_beta=0.05d00,
  electron_maxstep=1000,
  startingwfc='atomic',
/
&IONS
  ion_dynamics='ipi',
/
&CELL
  cell_dynamics='ipi',
/
CELL_PARAMETERS alat
    6.579727202290808d0     0.000000000000000d0     0.000000000000000d0
   -0.000775132442404d0     5.961596420607155d0     0.000000000000000d0
    0.000000000000000d0    -0.000000000000000d0    25.155947251439940d0
ATOMIC_SPECIES
Ti1 47.867d00 Ti.UPF
O1 15.999d00 O.UPF
N1 14.007d00 N.UPF
C1 12.011d00 C.UPF
H1 1.008d00 H.UPF
ATOMIC_POSITIONS {crystal}
Ti1      0.000123603383822d0     0.499897385958536d0     0.238512187198856d0
Ti1      0.500142521004230d0     0.250038178055688d0     0.238522014307695d0
O1       0.000095322930372d0     0.000084774873452d0     0.317452257936818d0
O1       0.500112315057126d0     0.000084209992886d0     0.290342007718641d0
O1       0.698270105622955d0     0.250236102495782d0     0.369213011426276d0
O1       0.301995368073695d0     0.249987007385122d0     0.369214717028816d0
Ti1      0.500198167309398d0     0.485761668506182d0     0.364758343030283d0
Ti1      0.000261424674789d0     0.248709163236136d0     0.368424970923767d0
O1       0.498084955675304d0     0.998825353461754d0     0.451730179221491d0
O1       0.001882992193933d0     0.999479849154423d0     0.422099495650131d0
O1       0.196224408456074d0     0.251170948150647d0     0.504823223152904d0
O1       0.804535432703589d0     0.251234494384088d0     0.503590168179842d0
Ti1      0.997760403145204d0     0.499283802123737d0     0.497274027454044d0
Ti1      0.496045498401759d0     0.244808911087726d0     0.497861891381447d0
O1       0.997933791684572d0     0.995256007101610d0     0.584476962370560d0
O1       0.501822093098153d0     0.999013687989913d0     0.555383139357475d0
O1       0.693423453945752d0     0.256767859918647d0     0.641869114121756d0
O1       0.312896990145517d0     0.255372514772903d0     0.640685026426167d0
Ti1      0.501323942188227d0     0.505461697218179d0     0.626049209600867d0
Ti1      0.000669709200677d0     0.232073120293283d0     0.630162857312376d0
O1       0.500093721748991d0     0.000084921243389d0     0.186906639369252d0
O1       0.005118226104706d0     0.023400495458880d0     0.685599491423221d0
O1       0.198268504441574d0     0.250236248865719d0     0.238667392858710d0
O1       0.801993766892314d0     0.249987153755059d0     0.238669098461250d0
Ti1      0.000123603383822d0     0.999897385958536d0     0.238512187198856d0
Ti1      0.500142521004230d0     0.750038178055688d0     0.238522014307695d0
O1       0.000095322930372d0     0.500084774873452d0     0.317452257936818d0
O1       0.500112315057126d0     0.500084209992886d0     0.290342007718641d0
O1       0.698270105622955d0     0.750236102495782d0     0.369213011426276d0
O1       0.301995368073695d0     0.749987007385122d0     0.369214717028816d0
Ti1      0.500001644927041d0     0.985370751416071d0     0.364779031055315d0
Ti1      0.000183276761494d0     0.748948988039575d0     0.368476322807288d0
O1       0.497173418405715d0     0.496949125418393d0     0.451646989981363d0
O1       0.001460782485842d0     0.499964783615161d0     0.422656139091726d0
O1       0.196725441618101d0     0.749536466347508d0     0.503505340038522d0
O1       0.804185042797475d0     0.749078927712474d0     0.502579163115993d0
Ti1      0.998092747050345d0     0.997527137031003d0     0.497144537605706d0
Ti1      0.495533384480117d0     0.744372431134262d0     0.497341203854357d0
O1       0.003925238713798d0     0.511432421435411d0     0.595627250549794d0
O1       0.502956262859298d0     0.504025909202514d0     0.554920494831550d0
O1       0.694695204054342d0     0.753424234054708d0     0.643831013920009d0
O1       0.314309146796775d0     0.754282283307753d0     0.644182415870135d0
Ti1      0.501556604090087d0     0.004110141903580d0     0.626735713077405d0
Ti1      0.996959545125516d0     0.773809154333295d0     0.639655386581771d0
O1       0.500093721748991d0     0.500084921243389d0     0.186906639369252d0
O1       0.198268504441574d0     0.750236248865719d0     0.238667392858710d0
O1       0.801993766892315d0     0.749987153755059d0     0.238669098461250d0
N1       0.011958053842583d0     0.546564963841636d0     0.715494073009528d0
C1       0.047086922139991d0     0.417797029010755d0     0.748303472670157d0
H1       0.097069649125846d0     0.298093929845350d0     0.777427894199373d0
N1       0.383829824416234d0     0.048805748637863d0     0.774526518782459d0
H1       0.497520194396572d0     0.093782839086476d0     0.748790244689537d0
H1       0.281343983387217d0     0.958829724232803d0     0.752942702401246d0
H1       0.446190156238021d0     0.938777572631538d0     0.801687689933460d0
K_POINTS automatic
4 4 1  0 0 0 
