&CONTROL
  calculation='relax',
  prefix='calc',
  pseudo_dir='/storage/coda1/p-amedford6/0/shared/rich_project_chbe-medford/medford-share/data/pseudos_module/espresso/nninc/pbe/van',
  outdir='.',
  tefield=.true.,
  dipfield=.true.,
  tprnfor=.true.,
  disk_io='none',
/
&SYSTEM
  ibrav=0,
  celldm(1)=1.8897261245650618d0,
  nat=55,
  ntyp=5,
  ecutwfc=29.39945797996531d00,
  ecutrho=293.9945797996531d00,
  nbnd=208,
  occupations='smearing',
  smearing='fd',
  degauss=0.007349864494991328d00,
  input_dft='BEEF-vdW',
  edir=3,
  emaxpos=0.998239248428239d00,
  eopreg=0.025d00,
  eamp=0.0d00,
  nosym=.false.,
  noinv=.false.,
  nosym_evc=.false.,
  no_t_rev=.false.,
/
&ELECTRONS
  diagonalization='david',
  conv_thr=7.349864494991327e-08,
  mixing_beta=0.05d00,
  electron_maxstep=1000,
  startingpot='file',
  startingwfc='atomic',
/
&IONS
  ion_dynamics='ipi',
/
&CELL
  cell_dynamics='ipi',
/
CELL_PARAMETERS alat
    6.579727202290808d0     0.000000000000000d0     0.000000000000000d0
   -0.000775132442404d0     5.961596420607155d0     0.000000000000000d0
    0.000000000000000d0    -0.000000000000000d0    25.155947251439940d0
ATOMIC_SPECIES
Ti1 47.867d00 Ti.UPF
O1 15.999d00 O.UPF
N1 14.007d00 N.UPF
C1 12.011d00 C.UPF
H1 1.008d00 H.UPF
ATOMIC_POSITIONS {crystal}
Ti1      0.000123603383822d0     0.499897385958536d0     0.238512187198856d0
Ti1      0.500142521004230d0     0.250038178055688d0     0.238522014307695d0
O1       0.000095322930372d0     0.000084774873452d0     0.317452257936818d0
O1       0.500112315057126d0     0.000084209992886d0     0.290342007718641d0
O1       0.698270105622955d0     0.250236102495782d0     0.369213011426276d0
O1       0.301995368073695d0     0.249987007385122d0     0.369214717028816d0
Ti1      0.500198167309398d0     0.485761668506182d0     0.364758343030283d0
Ti1      0.000261424674789d0     0.248709163236136d0     0.368424970923767d0
O1       0.499565475498411d0     0.000140767901955d0     0.450506846175453d0
O1       0.001882992193933d0     0.999479849154423d0     0.422099495650131d0
O1       0.199172440489666d0     0.250320808255822d0     0.501704541055495d0
O1       0.804525664373958d0     0.249080677444626d0     0.501369313239873d0
Ti1      0.991172005020815d0     0.495442823593335d0     0.501538886142579d0
Ti1      0.487258993483017d0     0.249887980497295d0     0.496170411297516d0
O1       0.998723097063996d0     0.002290955172129d0     0.582551339366649d0
O1       0.502147525118412d0     0.002237769526097d0     0.553645628984389d0
O1       0.690000445239404d0     0.257041091370114d0     0.639252735753421d0
O1       0.312247497411729d0     0.255279343450751d0     0.637901075685303d0
Ti1      0.498177451236469d0     0.505017300032380d0     0.624195646825535d0
Ti1      0.993120689472190d0     0.257894796486598d0     0.629767368801472d0
O1       0.500093721748991d0     0.000084921243389d0     0.186906639369252d0
O1       0.000521756640319d0     0.005404134044178d0     0.684643503024952d0
O1       0.198268504441574d0     0.250236248865719d0     0.238667392858710d0
O1       0.801993766892314d0     0.249987153755059d0     0.238669098461250d0
Ti1      0.000123603383822d0     0.999897385958536d0     0.238512187198856d0
Ti1      0.500142521004230d0     0.750038178055688d0     0.238522014307695d0
O1       0.000095322930372d0     0.500084774873452d0     0.317452257936818d0
O1       0.500112315057126d0     0.500084209992886d0     0.290342007718641d0
O1       0.698270105622955d0     0.750236102495782d0     0.369213011426276d0
O1       0.301995368073695d0     0.749987007385122d0     0.369214717028816d0
Ti1      0.500001644927041d0     0.985370751416071d0     0.364779031055315d0
Ti1      0.000183276761494d0     0.748948988039575d0     0.368476322807288d0
O1       0.499295030364382d0     0.501088422692639d0     0.450437354304684d0
O1       0.001460782485842d0     0.499964783615161d0     0.422656139091726d0
O1       0.198429236481934d0     0.751881799009494d0     0.502119936154828d0
O1       0.804909446617391d0     0.750655251791389d0     0.501768870491318d0
Ti1      0.991321405425126d0     0.994719177559039d0     0.499246246173286d0
Ti1      0.486997050965134d0     0.749833605988081d0     0.496367334787373d0
O1       0.997860121143160d0     0.493661824723715d0     0.582203190423671d0
O1       0.501694537014159d0     0.502862955156429d0     0.552805251235380d0
O1       0.688415044480041d0     0.752655495954278d0     0.640771312409462d0
O1       0.311096400596629d0     0.753786001382986d0     0.638144344819221d0
Ti1      0.496666714405354d0     0.004293182303955d0     0.625139840576406d0
Ti1      0.997473021315207d0     0.783266939796008d0     0.640407850785700d0
O1       0.500093721748991d0     0.500084921243389d0     0.186906639369252d0
O1       0.198268504441574d0     0.750236248865719d0     0.238667392858710d0
O1       0.801993766892315d0     0.749987153755059d0     0.238669098461250d0
N1       0.010167325068337d0     0.496938182842849d0     0.691435552251775d0
C1       0.040525387042419d0     0.481676045211964d0     0.740749719497526d0
H1       0.058726197317085d0     0.630494454249759d0     0.765867019749455d0
H1       0.053267822759879d0     0.317481010532894d0     0.760350107451657d0
N1       0.544639745277424d0     0.818901580992899d0     0.778480088378490d0
H1       0.629231818428505d0     0.953998281562166d0     0.789096250493165d0
H1       0.617928970440858d0     0.745413410733263d0     0.747787576003173d0
H1       0.548534973971533d0     0.710338214159367d0     0.809571857487225d0
K_POINTS automatic
4 4 1  0 0 0 
