&CONTROL
  calculation='relax',
  prefix='calc',
  pseudo_dir='/storage/coda1/p-amedford6/0/shared/rich_project_chbe-medford/medford-share/data/pseudos_module/espresso/nninc/pbe/van',
  outdir='.',
  tefield=.true.,
  dipfield=.true.,
  tprnfor=.true.,
  disk_io='none',
/
&SYSTEM
  ibrav=0,
  celldm(1)=1.8897261245650618d0,
  nat=53,
  ntyp=5,
  ecutwfc=29.39945797996531d00,
  ecutrho=293.9945797996531d00,
  nbnd=207,
  occupations='smearing',
  smearing='fd',
  degauss=0.007349864494991328d00,
  input_dft='BEEF-vdW',
  edir=3,
  emaxpos=0.9888728971373628d00,
  eopreg=0.025d00,
  eamp=0.0d00,
  nosym=.false.,
  noinv=.false.,
  nosym_evc=.false.,
  no_t_rev=.false.,
/
&ELECTRONS
  diagonalization='david',
  conv_thr=7.349864494991327e-08,
  mixing_beta=0.05d00,
  electron_maxstep=1000,
  startingwfc='atomic',
/
&IONS
  ion_dynamics='ipi',
/
&CELL
  cell_dynamics='ipi',
/
CELL_PARAMETERS alat
    6.579727202290808d0     0.000000000000000d0     0.000000000000000d0
   -0.000775132442404d0     5.961596420607155d0     0.000000000000000d0
    0.000000000000000d0    -0.000000000000000d0    25.155947251439940d0
ATOMIC_SPECIES
Ti1 47.867d00 Ti.UPF
O1 15.999d00 O.UPF
N1 14.007d00 N.UPF
C1 12.011d00 C.UPF
H1 1.008d00 H.UPF
ATOMIC_POSITIONS {crystal}
Ti1      0.000123603383822d0     0.499897385958536d0     0.238512187198856d0
Ti1      0.500142521004230d0     0.250038178055688d0     0.238522014307695d0
O1       0.000095322930372d0     0.000084774873452d0     0.317452257936818d0
O1       0.500112315057126d0     0.000084209992886d0     0.290342007718641d0
O1       0.698270105622955d0     0.250236102495782d0     0.369213011426276d0
O1       0.301995368073695d0     0.249987007385122d0     0.369214717028816d0
Ti1      0.500198167309398d0     0.485761668506182d0     0.364758343030283d0
Ti1      0.000261424674789d0     0.248709163236136d0     0.368424970923767d0
O1       0.500351827256237d0     0.996521489056377d0     0.449894866168790d0
O1       0.001882992193933d0     0.999479849154423d0     0.422099495650131d0
O1       0.198870555585626d0     0.247555267202458d0     0.501870565192899d0
O1       0.806474204126284d0     0.248120866522752d0     0.501792473795297d0
Ti1      0.992382611646565d0     0.503165574493418d0     0.500910873568575d0
Ti1      0.488904281135815d0     0.245945962820536d0     0.495737362094487d0
O1       0.004768935261498d0     0.996050550650426d0     0.582378681984464d0
O1       0.503333798641334d0     0.996987079720552d0     0.551829127005473d0
O1       0.689169276369753d0     0.248090959220043d0     0.639431832400832d0
O1       0.313041668378521d0     0.240731821323540d0     0.635189039170132d0
Ti1      0.499766334544314d0     0.495241703726266d0     0.623456492135537d0
Ti1      0.999725449812199d0     0.211901660512799d0     0.637699958809830d0
O1       0.500093721748991d0     0.000084921243389d0     0.186906639369252d0
O1       0.985811316185769d0     0.992055066742885d0     0.683018087573009d0
O1       0.198268504441574d0     0.250236248865719d0     0.238667392858710d0
O1       0.801993766892314d0     0.249987153755059d0     0.238669098461250d0
Ti1      0.000123603383822d0     0.999897385958536d0     0.238512187198856d0
Ti1      0.500142521004230d0     0.750038178055688d0     0.238522014307695d0
O1       0.000095322930372d0     0.500084774873452d0     0.317452257936818d0
O1       0.500112315057126d0     0.500084209992886d0     0.290342007718641d0
O1       0.698270105622955d0     0.750236102495782d0     0.369213011426276d0
O1       0.301995368073695d0     0.749987007385122d0     0.369214717028816d0
Ti1      0.500001644927041d0     0.985370751416071d0     0.364779031055315d0
Ti1      0.000183276761494d0     0.748948988039575d0     0.368476322807288d0
O1       0.500743221455101d0     0.497193137879466d0     0.449913455705291d0
O1       0.001460782485842d0     0.499964783615161d0     0.422656139091726d0
O1       0.199593607669816d0     0.746006685300266d0     0.502036298173595d0
O1       0.806327911807542d0     0.748449172499189d0     0.501976591411014d0
Ti1      0.993790810422718d0     0.003914638283174d0     0.498935829694756d0
Ti1      0.488612052410232d0     0.745891730799727d0     0.496065345096862d0
O1       0.997776740376743d0     0.498131584999166d0     0.586710276559348d0
O1       0.502484399289963d0     0.495885644109694d0     0.551786321747421d0
O1       0.685494132537923d0     0.745058888598657d0     0.635545188896813d0
O1       0.312220353693786d0     0.743557255819142d0     0.637987347051949d0
Ti1      0.499896956745150d0     0.995283581168261d0     0.623632280632536d0
Ti1      0.995690636235656d0     0.742488752131781d0     0.631840956790868d0
O1       0.500093721748991d0     0.500084921243389d0     0.186906639369252d0
O1       0.198268504441574d0     0.750236248865719d0     0.238667392858710d0
O1       0.801993766892315d0     0.749987153755059d0     0.238669098461250d0
N1       0.078179872159229d0     0.395646011237795d0     0.713491958458160d0
C1       0.168665294297709d0     0.336762422139904d0     0.756791421918628d0
H1       0.175885350424601d0     0.449058821488138d0     0.790839154905473d0
H1       0.236531362891948d0     0.171969271717732d0     0.758670030679043d0
N1       0.986767141751913d0     0.590082810218780d0     0.705632999288214d0
H1       0.988731514440314d0     0.695935248223425d0     0.737670356258434d0
K_POINTS automatic
4 4 1  0 0 0 
