&CONTROL
  calculation='relax',
  prefix='calc',
  pseudo_dir='/storage/coda1/p-amedford6/0/shared/rich_project_chbe-medford/medford-share/data/pseudos_module/espresso/nninc/pbe/van',
  outdir='.',
  tefield=.true.,
  dipfield=.true.,
  tprnfor=.true.,
  disk_io='none',
/
&SYSTEM
  ibrav=0,
  celldm(1)=1.8897261245650618d0,
  nat=53,
  ntyp=4,
  ecutwfc=29.39945797996531d00,
  ecutrho=293.9945797996531d00,
  nbnd=208,
  occupations='smearing',
  smearing='fd',
  degauss=0.007349864494991328d00,
  input_dft='BEEF-vdW',
  edir=3,
  emaxpos=0.9748062713873613d00,
  eopreg=0.025d00,
  eamp=0.0d00,
  nosym=.false.,
  noinv=.false.,
  nosym_evc=.false.,
  no_t_rev=.false.,
/
&ELECTRONS
  diagonalization='david',
  conv_thr=7.349864494991327e-08,
  mixing_beta=0.05d00,
  electron_maxstep=1000,
  startingpot='file',
  startingwfc='atomic',
/
&IONS
  ion_dynamics='ipi',
/
&CELL
  cell_dynamics='ipi',
/
CELL_PARAMETERS alat
    6.579727202290808d0     0.000000000000000d0     0.000000000000000d0
   -0.000775132442404d0     5.961596420607155d0     0.000000000000000d0
    0.000000000000000d0    -0.000000000000000d0    25.155947251439940d0
ATOMIC_SPECIES
O1 15.999d00 O.UPF
Ti1 47.867d00 Ti.UPF
C1 12.011d00 C.UPF
H1 1.008d00 H.UPF
ATOMIC_POSITIONS {crystal}
O1       0.500093721748991d0     0.000084921243389d0     0.186906639369252d0
O1       0.500093721748991d0     0.500084921243389d0     0.186906639369252d0
Ti1      0.000123603383822d0     0.499897385958537d0     0.238512187198856d0
Ti1      0.000123603383822d0     0.999897385958537d0     0.238512187198856d0
Ti1      0.500142521004230d0     0.250038178055688d0     0.238522014307695d0
Ti1      0.500142521004230d0     0.750038178055688d0     0.238522014307695d0
O1       0.198268504441574d0     0.250236248865719d0     0.238667392858710d0
O1       0.198268504441574d0     0.750236248865719d0     0.238667392858710d0
O1       0.801993766892314d0     0.249987153755059d0     0.238669098461250d0
O1       0.801993766892315d0     0.749987153755059d0     0.238669098461250d0
O1       0.500112315057126d0     0.000084209992886d0     0.290342007718641d0
O1       0.500112315057126d0     0.500084209992886d0     0.290342007718641d0
O1       0.000095322930372d0     0.000084774873452d0     0.317452257936818d0
O1       0.000095322930372d0     0.500084774873452d0     0.317452257936818d0
Ti1      0.504622993688154d0     0.015430071930356d0     0.364519696437841d0
Ti1      0.504879540504348d0     0.515964660542416d0     0.365668911336070d0
Ti1      0.006467899176673d0     0.759391768851594d0     0.368422856306833d0
Ti1      0.005977069277995d0     0.269079822190411d0     0.371359890068415d0
O1       0.698270105622955d0     0.250236102495782d0     0.369213011426276d0
O1       0.698270105622955d0     0.750236102495782d0     0.369213011426276d0
O1       0.301995368073695d0     0.249987007385122d0     0.369214717028816d0
O1       0.301995368073695d0     0.749987007385122d0     0.369214717028816d0
O1       0.001910945613918d0     0.001638602783229d0     0.420695949174600d0
O1       0.001291993927539d0     0.501852127595470d0     0.420038962820118d0
O1       0.502780538704536d0     0.497862380061872d0     0.449398841906633d0
O1       0.502441654204143d0     0.003896985166317d0     0.450658258653393d0
Ti1      0.003547876934438d0     0.010534075760358d0     0.496045086064373d0
Ti1      0.502527335204769d0     0.782305241569564d0     0.504063670876635d0
Ti1      0.502136346142622d0     0.264921831166898d0     0.494091167041935d0
Ti1      0.001419675492456d0     0.511292132374741d0     0.506729908905645d0
O1       0.196660026636413d0     0.749669292555955d0     0.502080957716238d0
O1       0.197382814752491d0     0.251508085893119d0     0.501816433607121d0
O1       0.809761413851974d0     0.751365942225211d0     0.501969598777879d0
O1       0.809569101527001d0     0.250190789351617d0     0.501752584963602d0
O1       0.506096222313769d0     0.499641709048175d0     0.552283983954184d0
O1       0.503244332878704d0     0.991311939633034d0     0.554885557549862d0
O1       0.005865389205591d0     0.000417948038138d0     0.582493529184164d0
O1       0.001373947485967d0     0.501105595166183d0     0.584370816209309d0
Ti1      0.504657289040189d0     0.495272299231205d0     0.622896182988201d0
Ti1      0.519672014004453d0     0.995274961400895d0     0.645349077712111d0
Ti1      0.016036629931264d0     0.770315199282816d0     0.633741622161049d0
Ti1      0.013584727052905d0     0.234505045595445d0     0.631779837218115d0
O1       0.697696785009996d0     0.742599335436258d0     0.639944447320491d0
O1       0.697917166868776d0     0.254846507236152d0     0.638694879700153d0
O1       0.309648809863899d0     0.260241308246318d0     0.637420680359565d0
O1       0.310013114981583d0     0.738421347063743d0     0.637735029086969d0
O1       0.009708664877779d0     0.002191560045039d0     0.682376245823781d0
O1       0.997919174721391d0     0.500361175224923d0     0.693121457002640d0
C1       0.952267890226445d0     0.498246306917681d0     0.741710775143258d0
H1       0.934655298961902d0     0.656670223274101d0     0.762705903405470d0
H1       0.927102365743942d0     0.338110187307095d0     0.761391176643628d0
O1       0.484960345960468d0     0.000654448204958d0     0.718151798328440d0
H1       0.346876037159224d0     0.019345102053653d0     0.731022090408870d0
K_POINTS automatic
4 4 1  0 0 0 
