&CONTROL
  calculation='relax',
  prefix='calc',
  pseudo_dir='/storage/coda1/p-amedford6/0/shared/rich_project_chbe-medford/medford-share/data/pseudos_module/espresso/nninc/pbe/van',
  outdir='.',
  tefield=.true.,
  dipfield=.true.,
  tprnfor=.true.,
  disk_io='none',
/
&SYSTEM
  ibrav=0,
  celldm(1)=1.8897261245650618d0,
  nat=50,
  ntyp=5,
  ecutwfc=29.39945797996531d00,
  ecutrho=293.9945797996531d00,
  nbnd=204,
  occupations='smearing',
  smearing='fd',
  degauss=0.007349864494991328d00,
  input_dft='BEEF-vdW',
  edir=3,
  emaxpos=0.9827725870313953d00,
  eopreg=0.025d00,
  eamp=0.0d00,
  nosym=.false.,
  noinv=.false.,
  nosym_evc=.false.,
  no_t_rev=.false.,
/
&ELECTRONS
  diagonalization='david',
  conv_thr=7.349864494991327e-08,
  mixing_beta=0.05d00,
  electron_maxstep=1000,
  startingwfc='atomic',
/
&IONS
  ion_dynamics='ipi',
/
&CELL
  cell_dynamics='ipi',
/
CELL_PARAMETERS alat
    6.579727202290808d0     0.000000000000000d0     0.000000000000000d0
   -0.000775132442404d0     5.961596420607155d0     0.000000000000000d0
    0.000000000000000d0    -0.000000000000000d0    25.155947251439940d0
ATOMIC_SPECIES
Ti1 47.867d00 Ti.UPF
O1 15.999d00 O.UPF
N1 14.007d00 N.UPF
C1 12.011d00 C.UPF
H1 1.008d00 H.UPF
ATOMIC_POSITIONS {crystal}
Ti1      0.000123603383822d0     0.499897385958536d0     0.238512187198856d0
Ti1      0.500142521004230d0     0.250038178055688d0     0.238522014307695d0
O1       0.000095322930372d0     0.000084774873452d0     0.317452257936818d0
O1       0.500112315057126d0     0.000084209992886d0     0.290342007718641d0
O1       0.698270105622955d0     0.250236102495782d0     0.369213011426276d0
O1       0.301995368073695d0     0.249987007385122d0     0.369214717028816d0
Ti1      0.500198167309398d0     0.485761668506182d0     0.364758343030283d0
Ti1      0.000261424674789d0     0.248709163236136d0     0.368424970923767d0
O1       0.504537669470474d0     0.002901762151835d0     0.452035607214441d0
O1       0.001882992193933d0     0.999479849154423d0     0.422099495650131d0
O1       0.201002706435373d0     0.252454394121171d0     0.504057499913732d0
O1       0.809900420325798d0     0.252590468477689d0     0.504194120534841d0
Ti1      0.005723396208869d0     0.502946632783764d0     0.497844393738867d0
Ti1      0.506625454460662d0     0.253637102350061d0     0.497955907924374d0
O1       0.006089956405730d0     0.993520101947272d0     0.583995878220159d0
O1       0.506663708258580d0     0.000854906492448d0     0.556128936835993d0
O1       0.697936214738824d0     0.256334550182618d0     0.641745990386270d0
O1       0.315657126090744d0     0.255623731293210d0     0.641703109953453d0
Ti1      0.506149037434713d0     0.505343034444707d0     0.626207233758221d0
Ti1      0.005813563366666d0     0.229181288969293d0     0.629715244702151d0
O1       0.500093721748991d0     0.000084921243389d0     0.186906639369252d0
O1       0.006201014539981d0     0.019190814414049d0     0.685096503448106d0
O1       0.198268504441574d0     0.250236248865719d0     0.238667392858710d0
O1       0.801993766892314d0     0.249987153755059d0     0.238669098461250d0
Ti1      0.000123603383822d0     0.999897385958536d0     0.238512187198856d0
Ti1      0.500142521004230d0     0.750038178055688d0     0.238522014307695d0
O1       0.000095322930372d0     0.500084774873452d0     0.317452257936818d0
O1       0.500112315057126d0     0.500084209992886d0     0.290342007718641d0
O1       0.698270105622955d0     0.750236102495782d0     0.369213011426276d0
O1       0.301995368073695d0     0.749987007385122d0     0.369214717028816d0
Ti1      0.500001644927041d0     0.985370751416071d0     0.364779031055315d0
Ti1      0.000183276761494d0     0.748948988039575d0     0.368476322807288d0
O1       0.504969133584730d0     0.501584345661110d0     0.451822377394592d0
O1       0.001460782485842d0     0.499964783615161d0     0.422656139091726d0
O1       0.201107591599567d0     0.751248308930852d0     0.502951000537607d0
O1       0.809478281921806d0     0.750906377578440d0     0.503384038284296d0
Ti1      0.006690176194273d0     0.001404357702873d0     0.497125608107848d0
Ti1      0.507227432583501d0     0.753160224357091d0     0.497737430315495d0
O1       0.006722947671359d0     0.508052482756345d0     0.594452967762410d0
O1       0.505490749754019d0     0.503998397713588d0     0.554882292791671d0
O1       0.697427401182792d0     0.752160404264576d0     0.643745295108787d0
O1       0.316483993371941d0     0.752608677444666d0     0.643828511614654d0
Ti1      0.506184872808257d0     0.004798657854536d0     0.627650504131743d0
Ti1      0.005513515838615d0     0.771445623490049d0     0.639187728420608d0
O1       0.500093721748991d0     0.500084921243389d0     0.186906639369252d0
O1       0.198268504441574d0     0.750236248865719d0     0.238667392858710d0
O1       0.801993766892315d0     0.749987153755059d0     0.238669098461250d0
N1       0.010091652675022d0     0.544700757714471d0     0.714079889710520d0
C1       0.023166154838225d0     0.417342158423508d0     0.748405494563092d0
H1       0.034571910385750d0     0.292998906088617d0     0.778638534693538d0
K_POINTS automatic
4 4 1  0 0 0 
