&CONTROL
  calculation='relax',
  prefix='calc',
  pseudo_dir='/storage/coda1/p-amedford6/0/shared/rich_project_chbe-medford/medford-share/data/pseudos_module/espresso/nninc/pbe/van',
  outdir='.',
  tefield=.true.,
  dipfield=.true.,
  tprnfor=.true.,
  disk_io='none',
/
&SYSTEM
  ibrav=0,
  celldm(1)=1.8897261245650618d0,
  nat=49,
  ntyp=3,
  ecutwfc=29.39945797996531d00,
  ecutrho=293.9945797996531d00,
  nbnd=204,
  occupations='smearing',
  smearing='fd',
  degauss=0.007349864494991328d00,
  nspin=2,
  starting_magnetization(1)=0.08333333333333333d00,
  starting_magnetization(2)=0.16666666666666666d00,
  starting_magnetization(3)=0.2d00,
  input_dft='BEEF-vdW',
  edir=3,
  emaxpos=0.9800987347338348d00,
  eopreg=0.025d00,
  eamp=0.0d00,
  nosym=.false.,
  noinv=.false.,
  nosym_evc=.false.,
  no_t_rev=.false.,
/
&ELECTRONS
  diagonalization='david',
  conv_thr=7.349864494991327e-08,
  mixing_beta=0.05d00,
  electron_maxstep=1000,
  startingwfc='atomic',
/
&IONS
  ion_dynamics='ipi',
/
&CELL
  cell_dynamics='ipi',
/
CELL_PARAMETERS alat
    6.579727202290808d0     0.000000000000000d0     0.000000000000000d0
   -0.000775132442404d0     5.961596420607155d0     0.000000000000000d0
    0.000000000000000d0    -0.000000000000000d0    25.155947251439940d0
ATOMIC_SPECIES
Ti1 47.867d00 Ti.UPF
O1 15.999d00 O.UPF
N1 14.007d00 N.UPF
ATOMIC_POSITIONS {crystal}
Ti1      0.000123603383822d0     0.499897385958536d0     0.238512187198856d0
Ti1      0.500142521004230d0     0.250038178055688d0     0.238522014307695d0
O1       0.000095322930372d0     0.000084774873452d0     0.317452257936818d0
O1       0.500112315057126d0     0.000084209992886d0     0.290342007718641d0
O1       0.698270105622955d0     0.250236102495782d0     0.369213011426276d0
O1       0.301995368073695d0     0.249987007385122d0     0.369214717028816d0
Ti1      0.500198167309398d0     0.485761668506182d0     0.364758343030283d0
Ti1      0.000261424674789d0     0.248709163236136d0     0.368424970923767d0
O1       0.500716698632865d0     0.997739466391735d0     0.452655709303104d0
O1       0.001882992193933d0     0.999479849154423d0     0.422099495650131d0
O1       0.196287766794266d0     0.248831202558057d0     0.503818547185423d0
O1       0.805238968848368d0     0.248803746137403d0     0.503622873500163d0
Ti1      0.002749065713130d0     0.497306072313426d0     0.497314968258166d0
Ti1      0.503819285894792d0     0.247371735601072d0     0.498406136744834d0
O1       0.999914864503618d0     0.996652086941163d0     0.583880087074963d0
O1       0.500907501208840d0     0.997003065978426d0     0.557140765228341d0
O1       0.692132581638981d0     0.249181550848571d0     0.643420402917951d0
O1       0.308048539762490d0     0.249106431650069d0     0.643303146744935d0
Ti1      0.500117011079635d0     0.496245184783150d0     0.627195111529250d0
Ti1      0.999845992855815d0     0.224906328072569d0     0.633563048610842d0
O1       0.500093721748991d0     0.000084921243389d0     0.186906639369252d0
O1       0.000191693801309d0     0.998777824312217d0     0.684540726406460d0
O1       0.198268504441574d0     0.250236248865719d0     0.238667392858710d0
O1       0.801993766892314d0     0.249987153755059d0     0.238669098461250d0
Ti1      0.000123603383822d0     0.999897385958536d0     0.238512187198856d0
Ti1      0.500142521004230d0     0.750038178055688d0     0.238522014307695d0
O1       0.000095322930372d0     0.500084774873452d0     0.317452257936818d0
O1       0.500112315057126d0     0.500084209992886d0     0.290342007718641d0
O1       0.698270105622955d0     0.750236102495782d0     0.369213011426276d0
O1       0.301995368073695d0     0.749987007385122d0     0.369214717028816d0
Ti1      0.500001644927041d0     0.985370751416071d0     0.364779031055315d0
Ti1      0.000183276761494d0     0.748948988039575d0     0.368476322807288d0
O1       0.500867585197190d0     0.497701354352559d0     0.452471115723730d0
O1       0.001460782485842d0     0.499964783615161d0     0.422656139091726d0
O1       0.196269000434890d0     0.747317327925479d0     0.503803780582277d0
O1       0.805244036698179d0     0.747361084597256d0     0.503615839754651d0
Ti1      0.003024202888379d0     0.996841061827251d0     0.496591253114707d0
Ti1      0.503856253257606d0     0.747096820235472d0     0.498475913601569d0
O1       0.000162685787725d0     0.497991761509492d0     0.595398581137215d0
O1       0.500950020774490d0     0.497359485311179d0     0.555854624167864d0
O1       0.692119816162342d0     0.744315005812442d0     0.643659432006592d0
O1       0.308067905472602d0     0.744369896822554d0     0.643524547871469d0
Ti1      0.499966951381726d0     0.996213547508093d0     0.628811446235556d0
Ti1      0.999783418254730d0     0.770588944993313d0     0.634304956927023d0
O1       0.500093721748991d0     0.500084921243389d0     0.186906639369252d0
O1       0.198268504441574d0     0.750236248865719d0     0.238667392858710d0
O1       0.801993766892315d0     0.749987153755059d0     0.238669098461250d0
N1       0.008006534618763d0     0.498643929472791d0     0.773290830098417d0
N1       0.003099687377870d0     0.503563445621885d0     0.729447948856891d0
K_POINTS automatic
4 4 1  0 0 0 
