&CONTROL
  calculation='relax',
  prefix='calc',
  pseudo_dir='/storage/coda1/p-amedford6/0/shared/rich_project_chbe-medford/medford-share/data/pseudos_module/espresso/nninc/pbe/van',
  outdir='.',
  tefield=.true.,
  dipfield=.true.,
  tprnfor=.true.,
  disk_io='none',
/
&SYSTEM
  ibrav=0,
  celldm(1)=1.8897261245650618d0,
  nat=52,
  ntyp=5,
  ecutwfc=29.39945797996531d00,
  ecutrho=293.9945797996531d00,
  nbnd=205,
  occupations='smearing',
  smearing='fd',
  degauss=0.007349864494991328d00,
  input_dft='BEEF-vdW',
  edir=3,
  emaxpos=0.9841519447068674d00,
  eopreg=0.025d00,
  eamp=0.0d00,
  nosym=.false.,
  noinv=.false.,
  nosym_evc=.false.,
  no_t_rev=.false.,
/
&ELECTRONS
  diagonalization='david',
  conv_thr=7.349864494991327e-08,
  mixing_beta=0.05d00,
  electron_maxstep=1000,
  startingpot='file',
  startingwfc='atomic',
/
&IONS
  ion_dynamics='ipi',
/
&CELL
  cell_dynamics='ipi',
/
CELL_PARAMETERS alat
    6.579727202290808d0     0.000000000000000d0     0.000000000000000d0
   -0.000775132442404d0     5.961596420607155d0     0.000000000000000d0
    0.000000000000000d0    -0.000000000000000d0    25.155947251439933d0
ATOMIC_SPECIES
Ti1 47.867d00 Ti.UPF
O1 15.999d00 O.UPF
C1 12.011d00 C.UPF
H1 1.008d00 H.UPF
N1 14.007d00 N.UPF
ATOMIC_POSITIONS {crystal}
Ti1      0.000123603383822d0     0.499897385958537d0     0.238512187198856d0
Ti1      0.500142521004230d0     0.250038178055688d0     0.238522014307695d0
O1       0.000095322930372d0     0.000084774873452d0     0.317452257936819d0
O1       0.500112315057126d0     0.000084209992886d0     0.290342007718641d0
O1       0.698270105622955d0     0.250236102495782d0     0.369213011426276d0
O1       0.301995368073695d0     0.249987007385122d0     0.369214717028816d0
Ti1      0.500190661470560d0     0.499476356236026d0     0.364362395747206d0
Ti1      0.000246046418692d0     0.248506417374527d0     0.369204730630199d0
O1       0.500700859091006d0     0.000038610928192d0     0.451602846093912d0
O1       0.000252943337030d0     0.999512315511104d0     0.421512222628837d0
O1       0.197181018412488d0     0.250594165207602d0     0.502438883310554d0
O1       0.804556883487491d0     0.251111561126264d0     0.502236916447722d0
Ti1      0.999856142172295d0     0.500092998257260d0     0.510340796740139d0
Ti1      0.500149686298665d0     0.251254395284789d0     0.496754605519551d0
O1       0.999026413568800d0     0.004871207104584d0     0.582664619675065d0
O1       0.502371747378224d0     0.003636029606413d0     0.555497616636974d0
O1       0.689277993022238d0     0.258379585784428d0     0.644219625565308d0
O1       0.309300888055399d0     0.256497435824942d0     0.641878599730383d0
Ti1      0.499658205280088d0     0.504019481972040d0     0.625037451884528d0
Ti1      0.006273824865133d0     0.254868227243122d0     0.641107388813798d0
O1       0.500093721748990d0     0.000084921243389d0     0.186906639369252d0
O1       0.997918811252457d0     0.988116891844446d0     0.685713109594569d0
O1       0.198268504441574d0     0.250236248865719d0     0.238667392858710d0
O1       0.801993766892313d0     0.249987153755059d0     0.238669098461250d0
Ti1      0.000123603383822d0     0.999897385958537d0     0.238512187198856d0
Ti1      0.500142521004230d0     0.750038178055688d0     0.238522014307695d0
O1       0.000095322930372d0     0.500084774873452d0     0.317452257936819d0
O1       0.500112315057126d0     0.500084209992886d0     0.290342007718641d0
O1       0.698270105622955d0     0.750236102495782d0     0.369213011426276d0
O1       0.301995368073695d0     0.749987007385122d0     0.369214717028816d0
Ti1      0.500240918961234d0     0.999475459909838d0     0.364221262320910d0
Ti1      0.000271862053560d0     0.738295017366434d0     0.371544053710304d0
O1       0.500445810279324d0     0.501373777717081d0     0.451358213121110d0
O1       0.000397213020567d0     0.499413121890681d0     0.419562538599671d0
O1       0.197458843929839d0     0.749461967185750d0     0.503136689033034d0
O1       0.804434650111908d0     0.749092250534159d0     0.503034943679310d0
Ti1      0.000388530028959d0     0.001549456229014d0     0.497620738843482d0
Ti1      0.499915137219327d0     0.750476048913460d0     0.496835439157391d0
O1       0.000610283027596d0     0.496015368426149d0     0.585742428076399d0
O1       0.501456653074003d0     0.499075310088946d0     0.554003505588370d0
O1       0.690367539101796d0     0.750178575956681d0     0.640078925446547d0
O1       0.310932573604081d0     0.751271562674802d0     0.640283702771299d0
Ti1      0.504307156981766d0     0.002600227040719d0     0.626590211443316d0
Ti1      0.000340983941402d0     0.787452826804977d0     0.632660437109586d0
O1       0.500093721748990d0     0.500084921243389d0     0.186906639369252d0
C1       0.011928795260133d0     0.467905206218580d0     0.710315005610438d0
O1       0.198268504441574d0     0.750236248865719d0     0.238667392858710d0
O1       0.801993766892314d0     0.749987153755059d0     0.238669098461250d0
H1       0.151352598274735d0     0.542345503311950d0     0.725949304221777d0
H1       0.723851067349829d0     0.413437002786474d0     0.738189425504802d0
N1       0.864002150527324d0     0.477020182601119d0     0.746601908842898d0
H1       0.877913761281633d0     0.560170215158634d0     0.781397250044483d0
K_POINTS automatic
4 4 1  0 0 0 
