&CONTROL
  calculation='relax',
  prefix='calc',
  pseudo_dir='/storage/coda1/p-amedford6/0/shared/rich_project_chbe-medford/medford-share/data/pseudos_module/espresso/nninc/pbe/van',
  outdir='.',
  tefield=.true.,
  dipfield=.true.,
  tprnfor=.true.,
  disk_io='none',
/
&SYSTEM
  ibrav=0,
  celldm(1)=1.8897261245650618d0,
  nat=51,
  ntyp=5,
  ecutwfc=29.39945797996531d00,
  ecutrho=293.9945797996531d00,
  nbnd=206,
  occupations='smearing',
  smearing='fd',
  degauss=0.007349864494991328d00,
  input_dft='BEEF-vdW',
  edir=3,
  emaxpos=0.0034079865476939197d00,
  eopreg=0.025d00,
  eamp=0.0d00,
  nosym=.false.,
  noinv=.false.,
  nosym_evc=.false.,
  no_t_rev=.false.,
/
&ELECTRONS
  diagonalization='david',
  conv_thr=7.349864494991327e-08,
  mixing_beta=0.05d00,
  electron_maxstep=1000,
  startingwfc='atomic',
/
&IONS
  ion_dynamics='ipi',
/
&CELL
  cell_dynamics='ipi',
/
CELL_PARAMETERS alat
    6.579727202290808d0     0.000000000000000d0     0.000000000000000d0
   -0.000775132442404d0     5.961596420607155d0     0.000000000000000d0
    0.000000000000000d0    -0.000000000000000d0    25.155947251439940d0
ATOMIC_SPECIES
Ti1 47.867d00 Ti.UPF
O1 15.999d00 O.UPF
N1 14.007d00 N.UPF
C1 12.011d00 C.UPF
H1 1.008d00 H.UPF
ATOMIC_POSITIONS {crystal}
Ti1      0.000123603383822d0     0.499897385958536d0     0.238512187198856d0
Ti1      0.500142521004230d0     0.250038178055688d0     0.238522014307695d0
O1       0.000095322930372d0     0.000084774873452d0     0.317452257936818d0
O1       0.500112315057126d0     0.000084209992886d0     0.290342007718641d0
O1       0.698270105622955d0     0.250236102495782d0     0.369213011426276d0
O1       0.301995368073695d0     0.249987007385122d0     0.369214717028816d0
Ti1      0.500198167309398d0     0.485761668506182d0     0.364758343030283d0
Ti1      0.000261424674789d0     0.248709163236136d0     0.368424970923767d0
O1       0.500947243664872d0     0.000490936943882d0     0.450567432860625d0
O1       0.001882992193933d0     0.999479849154423d0     0.422099495650131d0
O1       0.196738816279846d0     0.250037275744832d0     0.501630030135874d0
O1       0.802601426896874d0     0.250716146506440d0     0.501642996125188d0
Ti1      0.009559028645144d0     0.495515384628629d0     0.501726378707584d0
Ti1      0.512026410606862d0     0.249457803475042d0     0.496361527025821d0
O1       0.003455992582091d0     0.007322706443069d0     0.583037624614160d0
O1       0.500045551223760d0     0.003308281476711d0     0.553413241072766d0
O1       0.691505887643427d0     0.258064876130286d0     0.638412714511171d0
O1       0.314709964304865d0     0.257838752796457d0     0.638975638159338d0
Ti1      0.502670033718490d0     0.506585827589665d0     0.624521234377342d0
Ti1      0.001019736268308d0     0.259599647373130d0     0.630913543289417d0
O1       0.500093721748991d0     0.000084921243389d0     0.186906639369252d0
O1       0.002268962135099d0     0.007086704217200d0     0.684536466858395d0
O1       0.198268504441574d0     0.250236248865719d0     0.238667392858710d0
O1       0.801993766892314d0     0.249987153755059d0     0.238669098461250d0
Ti1      0.000123603383822d0     0.999897385958536d0     0.238512187198856d0
Ti1      0.500142521004230d0     0.750038178055688d0     0.238522014307695d0
O1       0.000095322930372d0     0.500084774873452d0     0.317452257936818d0
O1       0.500112315057126d0     0.500084209992886d0     0.290342007718641d0
O1       0.698270105622955d0     0.750236102495782d0     0.369213011426276d0
O1       0.301995368073695d0     0.749987007385122d0     0.369214717028816d0
Ti1      0.500001644927041d0     0.985370751416071d0     0.364779031055315d0
Ti1      0.000183276761494d0     0.748948988039575d0     0.368476322807288d0
O1       0.501281278712881d0     0.501216216171137d0     0.450569670782133d0
O1       0.001460782485842d0     0.499964783615161d0     0.422656139091726d0
O1       0.196255435545761d0     0.750980383011835d0     0.502160299725281d0
O1       0.803264460159328d0     0.752342462593736d0     0.502127740986437d0
Ti1      0.008531019004783d0     0.994758611456146d0     0.498926493969743d0
Ti1      0.512001645051054d0     0.749337690376390d0     0.496513231736458d0
O1       0.003162840937671d0     0.495865914076694d0     0.583269077613784d0
O1       0.500317967080221d0     0.503590812119859d0     0.552986404932266d0
O1       0.691499849062487d0     0.756856489943891d0     0.638667086494029d0
O1       0.314806768913729d0     0.756993710863853d0     0.639700578883458d0
Ti1      0.500756381894563d0     0.006568407500687d0     0.625023370335609d0
Ti1      0.001620765206395d0     0.786049518712841d0     0.639703618483856d0
O1       0.500093721748991d0     0.500084921243389d0     0.186906639369252d0
O1       0.198268504441574d0     0.750236248865719d0     0.238667392858710d0
O1       0.801993766892315d0     0.749987153755059d0     0.238669098461250d0
N1       0.019985251957820d0     0.503158607184088d0     0.739941552764781d0
N1       0.002995587052587d0     0.503011650069491d0     0.691676096931318d0
C1       0.012239152474474d0     0.504391543740586d0     0.787252458699988d0
H1       0.115447512657472d0     0.517315999686000d0     0.819909333726135d0
K_POINTS automatic
4 4 1  0 0 0 
